LAMMPS (22 Jul 2025 - Update 2)
KOKKOS mode with Kokkos version 4.6.2 is enabled
  will use up to 1 GPU(s) per node
  using 1 OpenMP thread(s) per MPI task
package kokkos
# H100 GPU-Optimized LAMMPS input for EPSR simulation of EGaIn eutectic alloy
# Composition: Ga0.858In0.142
# Temperature: 150Â°C (423.15 K)
# Potential: LJ + Empirical Potential (table)
# GPU: Using KOKKOS for H100 (Hopper architecture)

# ========== KOKKOS Initialization (CRITICAL: Must be first) ==========
# CRITICAL FIX: newton off prevents KOKKOS errors on H100
# Note: pair_style table does not have /kk support, but will run on CPU while LJ runs on GPU
package         kokkos neigh full newton off

# ========== Initialization ==========
units           real
atom_style      atomic
boundary        p p p

# ========== Force field ==========
# Use hybrid/overlay to combine LJ (GPU-accelerated) and table (CPU)
# The -sf kk flag will automatically use lj/cut/kk while table runs on CPU
# NOTE: pair_style must be defined BEFORE read_data if data file contains Pair Coeffs section
pair_style      hybrid/overlay lj/cut 12.0 table linear 200

# ========== Read structure ==========
# Use LJ-equilibrated structure as initial configuration (more stable)
shell           mkdir -p outputs
# nocoeff skips Pair Coeffs section which is incompatible with hybrid/overlay
read_data       outputs/final_structure_lj_H100.data nocoeff
Reading data file ...
  orthogonal box = (0 0 0) to (73.839453 73.839453 73.839453)
  1 by 1 by 1 MPI processor grid
WARNING: Pair style lj/cut/kk in data file differs from currently defined pair style zero (src/read_data.cpp:811)
  reading atoms ...
  20000 atoms
  reading velocities ...
  20000 velocities
  read_data CPU = 0.097 seconds

# LJ potential (GPU-accelerated with -sf kk flag)
pair_coeff      1 1 lj/cut 0.430 2.70    # Ga-Ga
pair_coeff      2 2 lj/cut 0.430 3.11    # In-In
pair_coeff      1 2 lj/cut 0.430 2.905   # Ga-In

# Empirical potential (from table files - runs on CPU)
# Table format: r, U(r), F(r)
pair_coeff      1 1 table data/ep_GaGa.table EP_GAGA 12.0
pair_coeff      2 2 table data/ep_InIn.table EP_ININ 12.0
pair_coeff      1 2 table data/ep_GaIn.table EP_GAIN 12.0

# ========== Settings ==========
mass            1 69.723    # Ga
mass            2 114.818   # In

# Optimized neighbor list for GPU
neighbor        2.0 bin
neigh_modify    delay 0 every 1 check yes binsize 4.0

# ========== Initial velocity ==========
# Re-initialize velocities for this temperature
velocity        all create 423.15 12345 dist gaussian

# ========== Thermodynamic output ==========
thermo          1000
thermo_style    custom step temp pe ke etotal press vol density cpu

# ========== Quick minimization for stability ==========
print "========== Energy Minimization =========="
========== Energy Minimization ==========
minimize        1.0e-4 1.0e-6 1000 10000
Generated 0 of 1 mixed pair_coeff terms from geometric mixing rule
Neighbor list info ...
  update: every = 1 steps, delay = 0 steps, check = yes
  max neighbors/atom: 2000, page size: 100000
  master list distance cutoff = 14
  ghost atom cutoff = 14
  binsize = 4, bins = 19 19 19
  2 neighbor lists, perpetual/occasional/extra = 2 0 0
  (1) pair lj/cut, perpetual
      attributes: full, newton off, kokkos_device
      pair build: full/bin/kk/device
      stencil: full/bin/3d
      bin: kk/device
  (2) pair table, perpetual, copy from (1)
      attributes: full, newton off, kokkos_device
      pair build: copy/kk/device
      stencil: none
      bin: none
WARNING: Fix MINIMIZE/kk not compatible with sending data in Kokkos communication (src/KOKKOS/comm_kokkos.cpp:767)
WARNING: Fix with atom-based arrays not compatible with sending data in Kokkos communication, switching to classic exchange/border communication (src/KOKKOS/comm_kokkos.cpp:780)
WARNING: Fix MINIMIZE/kk not compatible with Kokkos sorting on device (src/KOKKOS/atom_kokkos.cpp:212)
WARNING: Fix with atom-based arrays not compatible with Kokkos sorting on device, switching to classic host sorting (src/KOKKOS/atom_kokkos.cpp:218)
Per MPI rank memory allocation (min/avg/max) = 13.71 | 13.71 | 13.71 Mbytes
   Step          Temp          PotEng         KinEng         TotEng         Press          Volume        Density          CPU      
         0   423.15        -269722.67      25225.334     -244497.33      29547.681      402592.25      6.2796667      0            
        43   423.15        -290775.46      25225.334     -265550.12      15136.291      402592.25      6.2796667      0.064410185  
Loop time of 0.0644171 on 1 procs for 43 steps with 20000 atoms

98.3% CPU use with 1 MPI tasks x 1 OpenMP threads

Minimization stats:
  Stopping criterion = energy tolerance
  Energy initial, next-to-last, final = 
      -269722.66715941  -290751.661058477  -290775.455842289
  Force two-norm initial, final = 1467.3455 40.300996
  Force max component initial, final = 43.070625 1.9054414
  Final line search alpha, max atom move = 0.010732077 0.020449345
  Iterations, force evaluations = 43 43

MPI task timing breakdown:
Section |  min time  |  avg time  |  max time  |%varavg| %total
---------------------------------------------------------------
Pair    | 0.052477   | 0.052477   | 0.052477   |   0.0 | 81.47
Neigh   | 0.0012598  | 0.0012598  | 0.0012598  |   0.0 |  1.96
Comm    | 0.0024867  | 0.0024867  | 0.0024867  |   0.0 |  3.86
Output  | 0          | 0          | 0          |   0.0 |  0.00
Modify  | 0          | 0          | 0          |   0.0 |  0.00
Other   |            | 0.008193   |            |       | 12.72

Nlocal:          20000 ave       20000 max       20000 min
Histogram: 1 0 0 0 0 0 0 0 0 0
Nghost:          32444 ave       32444 max       32444 min
Histogram: 1 0 0 0 0 0 0 0 0 0
Neighs:              0 ave           0 max           0 min
Histogram: 1 0 0 0 0 0 0 0 0 0
FullNghs:   1.1409e+07 ave  1.1409e+07 max  1.1409e+07 min
Histogram: 1 0 0 0 0 0 0 0 0 0

Total # of neighbors = 11409028
Ave neighs/atom = 570.4514
Neighbor list builds = 1
Dangerous builds = 0
reset_timestep  0

# ========== RDF computation ==========
# Compute total and partial pair distribution functions
compute         myrdf all rdf 200 1 1 1 2 2 2 cutoff 12.0

# Time-average RDF output
fix             rdfout all ave/time 100 10 1000 c_myrdf[*] file rdf.dat mode vector

# ========== Equilibration (NVT) ==========
print "========== H100 GPU Equilibration =========="
========== H100 GPU Equilibration ==========

# Start with small timestep for stability
timestep        0.5

fix             nvt all nvt temp 423.15 423.15 100.0
run             5000
Generated 0 of 1 mixed pair_coeff terms from geometric mixing rule
Neighbor list info ...
  update: every = 1 steps, delay = 0 steps, check = yes
  max neighbors/atom: 2000, page size: 100000
  master list distance cutoff = 14
  ghost atom cutoff = 14
  binsize = 4, bins = 19 19 19
  3 neighbor lists, perpetual/occasional/extra = 2 1 0
  (1) pair lj/cut, perpetual
      attributes: full, newton off, kokkos_device
      pair build: full/bin/kk/device
      stencil: full/bin/3d
      bin: kk/device
  (2) pair table, perpetual, copy from (1)
      attributes: full, newton off, kokkos_device
      pair build: copy/kk/device
      stencil: none
      bin: none
  (3) compute rdf, occasional
      attributes: half, newton off
      pair build: half/bin/atomonly/newtoff
      stencil: full/bin/3d
      bin: standard
Per MPI rank memory allocation (min/avg/max) = 12.06 | 12.06 | 12.06 Mbytes
   Step          Temp          PotEng         KinEng         TotEng         Press          Volume        Density          CPU      
         0   423.15        -290775.46      25225.334     -265550.12      15136.291      402592.25      6.2796667      0            
      1000   336.32397     -274617.72      20049.355     -254568.36      26198.275      402592.25      6.2796667      3.0768232    
      2000   430.56603     -269343.72      25667.428     -243676.3       31006.142      402592.25      6.2796667      5.9458105    
      3000   426.48022     -269665.63      25423.859     -244241.77      30641.322      402592.25      6.2796667      9.0249135    
      4000   423.43872     -269644.86      25242.545     -244402.32      30652.783      402592.25      6.2796667      12.102197    
      5000   425.73841     -269609.89      25379.638     -244230.25      30628.589      402592.25      6.2796667      15.175511    
Loop time of 15.1755 on 1 procs for 5000 steps with 20000 atoms

Performance: 14.233 ns/day, 1.686 hours/ns, 329.478 timesteps/s, 6.590 Matom-step/s
99.9% CPU use with 1 MPI tasks x 1 OpenMP threads

MPI task timing breakdown:
Section |  min time  |  avg time  |  max time  |%varavg| %total
---------------------------------------------------------------
Pair    | 2.5123     | 2.5123     | 2.5123     |   0.0 | 16.55
Neigh   | 0.037675   | 0.037675   | 0.037675   |   0.0 |  0.25
Comm    | 0.051651   | 0.051651   | 0.051651   |   0.0 |  0.34
Output  | 0.001896   | 0.001896   | 0.001896   |   0.0 |  0.01
Modify  | 12.402     | 12.402     | 12.402     |   0.0 | 81.72
Other   |            | 0.1704     |            |       |  1.12

Nlocal:          20000 ave       20000 max       20000 min
Histogram: 1 0 0 0 0 0 0 0 0 0
Nghost:          32558 ave       32558 max       32558 min
Histogram: 1 0 0 0 0 0 0 0 0 0
Neighs:    6.84892e+06 ave 6.84892e+06 max 6.84892e+06 min
Histogram: 1 0 0 0 0 0 0 0 0 0
FullNghs:  1.14113e+07 ave 1.14113e+07 max 1.14113e+07 min
Histogram: 1 0 0 0 0 0 0 0 0 0

Total # of neighbors = 11411308
Ave neighs/atom = 570.5654
Neighbor list builds = 23
Dangerous builds = 0
unfix           nvt

# Increase timestep to normal
timestep        2.0

fix             nvt all nvt temp 423.15 423.15 100.0
run             15000
Generated 0 of 1 mixed pair_coeff terms from geometric mixing rule
Per MPI rank memory allocation (min/avg/max) = 38.39 | 38.39 | 38.39 Mbytes
   Step          Temp          PotEng         KinEng         TotEng         Press          Volume        Density          CPU      
      5000   425.73841     -269609.89      25379.638     -244230.25      30628.589      402592.25      6.2796667      0            
      6000   426.75049     -269410.6       25439.971     -243970.63      30765.592      402592.25      6.2796667      4.1601273    
      7000   428.57537     -269285.83      25548.758     -243737.07      30946.385      402592.25      6.2796667      8.3208018    
      8000   422.99542     -269439.56      25216.119     -244223.44      30780.784      402592.25      6.2796667      12.475433    
      9000   425.93312     -269399.1       25391.245     -244007.85      30834.093      402592.25      6.2796667      16.643357    
     10000   426.35319     -269549.26      25416.287     -244132.98      30700.358      402592.25      6.2796667      20.813258    
     11000   421.43889     -269652.69      25123.329     -244529.36      30521.656      402592.25      6.2796667      24.980237    
     12000   425.36075     -269620.6       25357.124     -244263.48      30635.699      402592.25      6.2796667      29.144995    
     13000   421.9518      -269412.01      25153.906     -244258.1       30782.872      402592.25      6.2796667      33.312371    
     14000   423.64561     -269455.67      25254.879     -244200.79      30745.294      402592.25      6.2796667      37.469905    
     15000   422.45146     -269302.87      25183.692     -244119.18      30879.727      402592.25      6.2796667      41.628921    
     16000   422.99018     -269462.48      25215.807     -244246.67      30706.798      402592.25      6.2796667      45.778861    
     17000   420.22294     -269563.92      25050.843     -244513.08      30632.761      402592.25      6.2796667      49.934403    
     18000   424.62264     -269295.65      25313.123     -243982.53      30830.103      402592.25      6.2796667      54.092063    
     19000   424.95841     -269374.8       25333.139     -244041.66      30830.028      402592.25      6.2796667      58.240376    
     20000   424.39083     -269624.07      25299.304     -244324.76      30636.763      402592.25      6.2796667      62.405444    
Loop time of 62.4055 on 1 procs for 15000 steps with 20000 atoms

Performance: 41.535 ns/day, 0.578 hours/ns, 240.364 timesteps/s, 4.807 Matom-step/s
100.0% CPU use with 1 MPI tasks x 1 OpenMP threads

MPI task timing breakdown:
Section |  min time  |  avg time  |  max time  |%varavg| %total
---------------------------------------------------------------
Pair    | 7.613      | 7.613      | 7.613      |   0.0 | 12.20
Neigh   | 0.46563    | 0.46563    | 0.46563    |   0.0 |  0.75
Comm    | 0.37178    | 0.37178    | 0.37178    |   0.0 |  0.60
Output  | 0.0053043  | 0.0053043  | 0.0053043  |   0.0 |  0.01
Modify  | 53.349     | 53.349     | 53.349     |   0.0 | 85.49
Other   |            | 0.6009     |            |       |  0.96

Nlocal:          20000 ave       20000 max       20000 min
Histogram: 1 0 0 0 0 0 0 0 0 0
Nghost:          32459 ave       32459 max       32459 min
Histogram: 1 0 0 0 0 0 0 0 0 0
Neighs:     6.8471e+06 ave  6.8471e+06 max  6.8471e+06 min
Histogram: 1 0 0 0 0 0 0 0 0 0
FullNghs:  1.14121e+07 ave 1.14121e+07 max 1.14121e+07 min
Histogram: 1 0 0 0 0 0 0 0 0 0

Total # of neighbors = 11412100
Ave neighs/atom = 570.605
Neighbor list builds = 293
Dangerous builds = 0
unfix           nvt

# ========== Production (NVT) ==========
print "========== H100 GPU Production run =========="
========== H100 GPU Production run ==========

fix             nvt all nvt temp 423.15 423.15 100.0

# Reset RDF for production run
uncompute       myrdf
compute         myrdf all rdf 200 1 1 1 2 2 2 cutoff 12.0
unfix           rdfout
fix             rdfout all ave/time 100 10 1000 c_myrdf[*] file rdf.dat mode vector

run             50000
Generated 0 of 1 mixed pair_coeff terms from geometric mixing rule
Neighbor list info ...
  update: every = 1 steps, delay = 0 steps, check = yes
  max neighbors/atom: 2000, page size: 100000
  master list distance cutoff = 14
  ghost atom cutoff = 14
  binsize = 4, bins = 19 19 19
  3 neighbor lists, perpetual/occasional/extra = 2 1 0
  (1) pair lj/cut, perpetual
      attributes: full, newton off, kokkos_device
      pair build: full/bin/kk/device
      stencil: full/bin/3d
      bin: kk/device
  (2) pair table, perpetual, copy from (1)
      attributes: full, newton off, kokkos_device
      pair build: copy/kk/device
      stencil: none
      bin: none
  (3) compute rdf, occasional
      attributes: half, newton off
      pair build: half/bin/atomonly/newtoff
      stencil: full/bin/3d
      bin: standard
Per MPI rank memory allocation (min/avg/max) = 12.06 | 12.06 | 12.06 Mbytes
   Step          Temp          PotEng         KinEng         TotEng         Press          Volume        Density          CPU      
     20000   424.39083     -269624.07      25299.304     -244324.76      30636.763      402592.25      6.2796667      0            
     21000   421.26357     -269677.54      25112.878     -244564.66      30543.165      402592.25      6.2796667      4.1670324    
     22000   419.46084     -269586.39      25005.411     -244580.98      30582.097      402592.25      6.2796667      8.3170943    
     23000   420.40022     -269281.89      25061.411     -244220.48      30915.198      402592.25      6.2796667      12.479286    
     24000   423.57202     -269312.51      25250.492     -244062.02      30773.89       402592.25      6.2796667      16.643071    
     25000   424.8899      -269712.01      25329.055     -244382.95      30597.432      402592.25      6.2796667      20.803355    
     26000   424.29995     -269359.24      25293.886     -244065.36      30825.53       402592.25      6.2796667      24.955545    
     27000   419.74669     -269603         25022.452     -244580.55      30551.994      402592.25      6.2796667      29.11267     
     28000   420.21628     -269354.62      25050.446     -244304.18      30822.534      402592.25      6.2796667      33.270918    
     29000   424.31148     -269402.22      25294.574     -244107.65      30836.658      402592.25      6.2796667      37.417674    
     30000   416.65675     -269500.34      24838.251     -244662.09      30638.671      402592.25      6.2796667      41.572865    
     31000   426.04611     -269454.71      25397.981     -244056.73      30774.172      402592.25      6.2796667      45.733027    
     32000   424.39996     -269343.73      25299.848     -244043.88      30804.346      402592.25      6.2796667      49.888211    
     33000   424.13916     -269367.01      25284.301     -244082.71      30833.513      402592.25      6.2796667      54.050325    
     34000   422.33413     -269645.19      25176.697     -244468.49      30648.132      402592.25      6.2796667      58.210318    
     35000   424.35836     -269500.5       25297.369     -244203.13      30733.528      402592.25      6.2796667      62.367356    
     36000   424.01046     -269399.47      25276.629     -244122.84      30767.212      402592.25      6.2796667      66.524183    
     37000   423.06506     -269329.51      25220.271     -244109.24      30829.009      402592.25      6.2796667      70.687636    
     38000   422.07286     -269740.85      25161.122     -244579.73      30534.549      402592.25      6.2796667      74.841096    
     39000   427.62351     -269538.9       25492.014     -244046.88      30697.539      402592.25      6.2796667      79.000962    
     40000   423.9557      -269511.6       25273.364     -244238.24      30761.065      402592.25      6.2796667      83.162396    
     41000   419.95285     -269381.52      25034.741     -244346.78      30749.648      402592.25      6.2796667      87.32585     
     42000   423.53671     -269469.71      25248.387     -244221.32      30776.601      402592.25      6.2796667      91.488529    
     43000   427.07227     -269342.72      25459.153     -243883.57      30745.948      402592.25      6.2796667      95.646297    
     44000   425.8351      -269548.55      25385.402     -244163.15      30674.916      402592.25      6.2796667      99.820407    
     45000   425.21427     -269421.84      25348.392     -244073.45      30770.089      402592.25      6.2796667      103.99018    
     46000   421.20192     -269557.67      25109.203     -244448.47      30674.67       402592.25      6.2796667      108.16457    
     47000   422.70681     -269389.55      25198.914     -244190.63      30799.342      402592.25      6.2796667      112.33075    
     48000   419.69625     -269498.17      25019.445     -244478.73      30681.228      402592.25      6.2796667      116.50259    
     49000   421.29368     -269477.58      25114.673     -244362.91      30630.143      402592.25      6.2796667      120.66838    
     50000   421.90216     -269383.13      25150.946     -244232.19      30794.783      402592.25      6.2796667      124.83765    
     51000   422.69557     -269437.94      25198.244     -244239.69      30805.909      402592.25      6.2796667      129.00675    
     52000   421.00439     -269767.49      25097.428     -244670.06      30509.981      402592.25      6.2796667      133.17347    
     53000   424.67993     -269331.99      25316.538     -244015.45      30888.358      402592.25      6.2796667      137.35099    
     54000   425.51125     -269687.69      25366.096     -244321.59      30579.296      402592.25      6.2796667      141.51573    
     55000   424.33604     -269620.91      25296.038     -244324.87      30695.137      402592.25      6.2796667      145.67392    
     56000   422.25407     -269538.18      25171.925     -244366.26      30681.446      402592.25      6.2796667      149.83564    
     57000   427.26788     -269518.54      25470.814     -244047.72      30674.082      402592.25      6.2796667      153.99683    
     58000   423.6926      -269489.29      25257.68      -244231.61      30744.603      402592.25      6.2796667      158.1569     
     59000   419.35276     -269468.63      24998.969     -244469.66      30785.421      402592.25      6.2796667      162.31732    
     60000   423.63744     -269483.72      25254.392     -244229.33      30655.968      402592.25      6.2796667      166.47894    
     61000   420.12786     -269520.88      25045.175     -244475.71      30682.594      402592.25      6.2796667      170.63845    
     62000   420.26716     -269206.58      25053.479     -244153.1       30929.828      402592.25      6.2796667      174.81078    
     63000   418.57152     -269497.81      24952.396     -244545.41      30731.594      402592.25      6.2796667      178.97832    
     64000   422.33496     -269499.1       25176.747     -244322.35      30641.811      402592.25      6.2796667      183.13419    
     65000   424.05844     -269334.69      25279.489     -244055.2       30808.272      402592.25      6.2796667      187.28518    
     66000   422.6369      -269776.3       25194.747     -244581.55      30553.621      402592.25      6.2796667      191.44348    
     67000   421.35194     -269341.86      25118.146     -244223.71      30780.524      402592.25      6.2796667      195.59884    
     68000   425.00429     -269231.35      25335.875     -243895.48      30928.329      402592.25      6.2796667      199.75576    
     69000   422.17128     -269678.98      25166.989     -244511.99      30615.069      402592.25      6.2796667      203.92431    
     70000   423.8134      -269386.33      25264.882     -244121.45      30844.672      402592.25      6.2796667      208.07908    
Loop time of 208.079 on 1 procs for 50000 steps with 20000 atoms

Performance: 41.523 ns/day, 0.578 hours/ns, 240.293 timesteps/s, 4.806 Matom-step/s
100.0% CPU use with 1 MPI tasks x 1 OpenMP threads

MPI task timing breakdown:
Section |  min time  |  avg time  |  max time  |%varavg| %total
---------------------------------------------------------------
Pair    | 25.292     | 25.292     | 25.292     |   0.0 | 12.15
Neigh   | 1.5584     | 1.5584     | 1.5584     |   0.0 |  0.75
Comm    | 1.2642     | 1.2642     | 1.2642     |   0.0 |  0.61
Output  | 0.018343   | 0.018343   | 0.018343   |   0.0 |  0.01
Modify  | 177.94     | 177.94     | 177.94     |   0.0 | 85.52
Other   |            | 2.006      |            |       |  0.96

Nlocal:          20000 ave       20000 max       20000 min
Histogram: 1 0 0 0 0 0 0 0 0 0
Nghost:          32501 ave       32501 max       32501 min
Histogram: 1 0 0 0 0 0 0 0 0 0
Neighs:    6.85267e+06 ave 6.85267e+06 max 6.85267e+06 min
Histogram: 1 0 0 0 0 0 0 0 0 0
FullNghs:  1.14141e+07 ave 1.14141e+07 max 1.14141e+07 min
Histogram: 1 0 0 0 0 0 0 0 0 0

Total # of neighbors = 11414054
Ave neighs/atom = 570.7027
Neighbor list builds = 975
Dangerous builds = 0
unfix           nvt

# ========== Finalize ==========
print "========== H100 GPU Simulation completed =========="
========== H100 GPU Simulation completed ==========

# Write restart file for next iteration (use fixed name to avoid shell command issues)
write_restart   outputs/restart.0.data
System init for write_restart ...
Generated 0 of 1 mixed pair_coeff terms from geometric mixing rule

# Final statistics
variable        density_final equal density
variable        temp_final equal temp
variable        press_final equal press

print "========================================="
=========================================
print "FINAL RESULTS:"
FINAL RESULTS:
print "  Density:     ${density_final} g/cm^3"
  Density:     6.27966666056993 g/cm^3
print "  Temperature: ${temp_final} K"
  Temperature: 423.813402826392 K
print "  Pressure:    ${press_final} bar"
  Pressure:    30844.6717281601 bar
print "========================================="
=========================================

print "RDF written to rdf.dat"
RDF written to rdf.dat
print "Restart file written to outputs/restart.0.data"
Restart file written to outputs/restart.0.data
Total wall time: 0:04:46
