LAMMPS (22 Jul 2025 - Update 2)
KOKKOS mode with Kokkos version 4.6.2 is enabled
  will use up to 1 GPU(s) per node
  using 1 OpenMP thread(s) per MPI task
package kokkos
# H100 GPU-Optimized LAMMPS input for EPSR simulation of EGaIn eutectic alloy
# Composition: Ga0.858In0.142
# Temperature: 150Â°C (423.15 K)
# Potential: LJ + Empirical Potential (table)
# GPU: Using KOKKOS for H100 (Hopper architecture)

# ========== KOKKOS Initialization (CRITICAL: Must be first) ==========
# CRITICAL FIX: newton off prevents KOKKOS errors on H100
# Note: pair_style table does not have /kk support, but will run on CPU while LJ runs on GPU
package         kokkos neigh full newton off

# ========== Initialization ==========
units           real
atom_style      atomic
boundary        p p p

# ========== Force field ==========
# Use hybrid/overlay to combine LJ (GPU-accelerated) and table (CPU)
# The -sf kk flag will automatically use lj/cut/kk while table runs on CPU
# NOTE: pair_style must be defined BEFORE read_data if data file contains Pair Coeffs section
pair_style      hybrid/overlay lj/cut 12.0 table linear 200

# ========== Read structure ==========
# Use LJ-equilibrated structure as initial configuration (more stable)
shell           mkdir -p outputs
# nocoeff skips Pair Coeffs section which is incompatible with hybrid/overlay
read_data       outputs/final_structure_lj_H100.data nocoeff
Reading data file ...
  orthogonal box = (0 0 0) to (73.839453 73.839453 73.839453)
  1 by 1 by 1 MPI processor grid
WARNING: Pair style lj/cut/kk in data file differs from currently defined pair style zero (src/read_data.cpp:811)
  reading atoms ...
  20000 atoms
  reading velocities ...
  20000 velocities
  read_data CPU = 0.097 seconds

# LJ potential (GPU-accelerated with -sf kk flag)
pair_coeff      1 1 lj/cut 0.430 2.70    # Ga-Ga
pair_coeff      2 2 lj/cut 0.430 3.11    # In-In
pair_coeff      1 2 lj/cut 0.430 2.905   # Ga-In

# Empirical potential (from table files - runs on CPU)
# Table format: r, U(r), F(r)
pair_coeff      1 1 table data/ep_GaGa.table EP_GAGA 12.0
pair_coeff      2 2 table data/ep_InIn.table EP_ININ 12.0
pair_coeff      1 2 table data/ep_GaIn.table EP_GAIN 12.0

# ========== Settings ==========
mass            1 69.723    # Ga
mass            2 114.818   # In

# Optimized neighbor list for GPU
neighbor        2.0 bin
neigh_modify    delay 0 every 1 check yes binsize 4.0

# ========== Initial velocity ==========
# Re-initialize velocities for this temperature
velocity        all create 423.15 12345 dist gaussian

# ========== Thermodynamic output ==========
thermo          1000
thermo_style    custom step temp pe ke etotal press vol density cpu

# ========== Quick minimization for stability ==========
print "========== Energy Minimization =========="
========== Energy Minimization ==========
minimize        1.0e-4 1.0e-6 1000 10000
Generated 0 of 1 mixed pair_coeff terms from geometric mixing rule
Neighbor list info ...
  update: every = 1 steps, delay = 0 steps, check = yes
  max neighbors/atom: 2000, page size: 100000
  master list distance cutoff = 14
  ghost atom cutoff = 14
  binsize = 4, bins = 19 19 19
  2 neighbor lists, perpetual/occasional/extra = 2 0 0
  (1) pair lj/cut, perpetual
      attributes: full, newton off, kokkos_device
      pair build: full/bin/kk/device
      stencil: full/bin/3d
      bin: kk/device
  (2) pair table, perpetual, copy from (1)
      attributes: full, newton off, kokkos_device
      pair build: copy/kk/device
      stencil: none
      bin: none
WARNING: Fix MINIMIZE/kk not compatible with sending data in Kokkos communication (src/KOKKOS/comm_kokkos.cpp:767)
WARNING: Fix with atom-based arrays not compatible with sending data in Kokkos communication, switching to classic exchange/border communication (src/KOKKOS/comm_kokkos.cpp:780)
WARNING: Fix MINIMIZE/kk not compatible with Kokkos sorting on device (src/KOKKOS/atom_kokkos.cpp:212)
WARNING: Fix with atom-based arrays not compatible with Kokkos sorting on device, switching to classic host sorting (src/KOKKOS/atom_kokkos.cpp:218)
Per MPI rank memory allocation (min/avg/max) = 13.71 | 13.71 | 13.71 Mbytes
   Step          Temp          PotEng         KinEng         TotEng         Press          Volume        Density          CPU      
         0   423.15        -3033471.6      25225.334     -3008246.3      52433.932      402592.25      6.2796667      0            
        14   423.15        -3061620.1      25225.334     -3036394.7      47523.113      402592.25      6.2796667      0.023385237  
Loop time of 0.023392 on 1 procs for 14 steps with 20000 atoms

99.9% CPU use with 1 MPI tasks x 1 OpenMP threads

Minimization stats:
  Stopping criterion = energy tolerance
  Energy initial, next-to-last, final = 
      -3033471.5962602  -3061423.53005275  -3061620.06662329
  Force two-norm initial, final = 1386.1029 149.98117
  Force max component initial, final = 42.964101 3.8085005
  Final line search alpha, max atom move = 0.006193604 0.023588344
  Iterations, force evaluations = 14 14

MPI task timing breakdown:
Section |  min time  |  avg time  |  max time  |%varavg| %total
---------------------------------------------------------------
Pair    | 0.018255   | 0.018255   | 0.018255   |   0.0 | 78.04
Neigh   | 0          | 0          | 0          |   0.0 |  0.00
Comm    | 0.0010609  | 0.0010609  | 0.0010609  |   0.0 |  4.54
Output  | 0          | 0          | 0          |   0.0 |  0.00
Modify  | 0          | 0          | 0          |   0.0 |  0.00
Other   |            | 0.004076   |            |       | 17.43

Nlocal:          20000 ave       20000 max       20000 min
Histogram: 1 0 0 0 0 0 0 0 0 0
Nghost:          32437 ave       32437 max       32437 min
Histogram: 1 0 0 0 0 0 0 0 0 0
Neighs:              0 ave           0 max           0 min
Histogram: 1 0 0 0 0 0 0 0 0 0
FullNghs:  1.13998e+07 ave 1.13998e+07 max 1.13998e+07 min
Histogram: 1 0 0 0 0 0 0 0 0 0

Total # of neighbors = 11399814
Ave neighs/atom = 569.9907
Neighbor list builds = 0
Dangerous builds = 0
reset_timestep  0

# ========== RDF computation ==========
# Compute total and partial pair distribution functions
compute         myrdf all rdf 200 1 1 1 2 2 2 cutoff 12.0

# Time-average RDF output
fix             rdfout all ave/time 100 10 1000 c_myrdf[*] file rdf.dat mode vector

# ========== Equilibration (NVT) ==========
print "========== H100 GPU Equilibration =========="
========== H100 GPU Equilibration ==========

# Start with small timestep for stability
timestep        0.5

fix             nvt all nvt temp 423.15 423.15 100.0
run             5000
Generated 0 of 1 mixed pair_coeff terms from geometric mixing rule
Neighbor list info ...
  update: every = 1 steps, delay = 0 steps, check = yes
  max neighbors/atom: 2000, page size: 100000
  master list distance cutoff = 14
  ghost atom cutoff = 14
  binsize = 4, bins = 19 19 19
  3 neighbor lists, perpetual/occasional/extra = 2 1 0
  (1) pair lj/cut, perpetual
      attributes: full, newton off, kokkos_device
      pair build: full/bin/kk/device
      stencil: full/bin/3d
      bin: kk/device
  (2) pair table, perpetual, copy from (1)
      attributes: full, newton off, kokkos_device
      pair build: copy/kk/device
      stencil: none
      bin: none
  (3) compute rdf, occasional
      attributes: half, newton off
      pair build: half/bin/atomonly/newtoff
      stencil: full/bin/3d
      bin: standard
Per MPI rank memory allocation (min/avg/max) = 12.06 | 12.06 | 12.06 Mbytes
   Step          Temp          PotEng         KinEng         TotEng         Press          Volume        Density          CPU      
         0   423.15        -3061620.1      25225.334     -3036394.7      47523.113      402592.25      6.2796667      0            
      1000   374.68589     -3054235.6      22336.233     -3031899.4      55068.989      402592.25      6.2796667      3.0847027    
      2000   429.2771      -3051696.2      25590.591     -3026105.6      57097.413      402592.25      6.2796667      6.1560315    
      3000   423.59857     -3052768.1      25252.075     -3027516        57208.55       402592.25      6.2796667      9.2219628    
      4000   425.34649     -3052378        25356.274     -3027021.7      56786.304      402592.25      6.2796667      12.085761    
      5000   422.75659     -3052066.1      25201.882     -3026864.2      56962.755      402592.25      6.2796667      15.165205    
Loop time of 15.1652 on 1 procs for 5000 steps with 20000 atoms

Performance: 14.243 ns/day, 1.685 hours/ns, 329.702 timesteps/s, 6.594 Matom-step/s
100.0% CPU use with 1 MPI tasks x 1 OpenMP threads

MPI task timing breakdown:
Section |  min time  |  avg time  |  max time  |%varavg| %total
---------------------------------------------------------------
Pair    | 2.5104     | 2.5104     | 2.5104     |   0.0 | 16.55
Neigh   | 0.037223   | 0.037223   | 0.037223   |   0.0 |  0.25
Comm    | 0.050139   | 0.050139   | 0.050139   |   0.0 |  0.33
Output  | 0.0017334  | 0.0017334  | 0.0017334  |   0.0 |  0.01
Modify  | 12.394     | 12.394     | 12.394     |   0.0 | 81.73
Other   |            | 0.1718     |            |       |  1.13

Nlocal:          20000 ave       20000 max       20000 min
Histogram: 1 0 0 0 0 0 0 0 0 0
Nghost:          32500 ave       32500 max       32500 min
Histogram: 1 0 0 0 0 0 0 0 0 0
Neighs:    6.85062e+06 ave 6.85062e+06 max 6.85062e+06 min
Histogram: 1 0 0 0 0 0 0 0 0 0
FullNghs:  1.14105e+07 ave 1.14105e+07 max 1.14105e+07 min
Histogram: 1 0 0 0 0 0 0 0 0 0

Total # of neighbors = 11410512
Ave neighs/atom = 570.5256
Neighbor list builds = 23
Dangerous builds = 0
unfix           nvt

# Increase timestep to normal
timestep        2.0

fix             nvt all nvt temp 423.15 423.15 100.0
run             15000
Generated 0 of 1 mixed pair_coeff terms from geometric mixing rule
Per MPI rank memory allocation (min/avg/max) = 38.38 | 38.38 | 38.38 Mbytes
   Step          Temp          PotEng         KinEng         TotEng         Press          Volume        Density          CPU      
      5000   422.75659     -3052066.1      25201.882     -3026864.2      56962.755      402592.25      6.2796667      0            
      6000   426.1263      -3052634.6      25402.761     -3027231.9      56974.631      402592.25      6.2796667      4.1595069    
      7000   422.86537     -3051903        25208.366     -3026694.7      57078.939      402592.25      6.2796667      8.3302794    
      8000   419.13239     -3052486.9      24985.831     -3027501        56803.166      402592.25      6.2796667      12.495924    
      9000   422.17805     -3053748.7      25167.393     -3028581.3      56786.264      402592.25      6.2796667      16.64694     
     10000   425.73301     -3053007.9      25379.316     -3027628.6      56976.285      402592.25      6.2796667      20.804675    
     11000   422.32354     -3052091.3      25176.066     -3026915.2      56813.774      402592.25      6.2796667      24.960656    
     12000   421.43272     -3052655.3      25122.961     -3027532.3      56917.685      402592.25      6.2796667      29.118879    
     13000   426.92118     -3052530.4      25450.146     -3027080.3      57081.112      402592.25      6.2796667      33.290646    
     14000   419.90592     -3053151.5      25031.944     -3028119.5      56856.254      402592.25      6.2796667      37.44882     
     15000   426.64445     -3052934.3      25433.649     -3027500.6      56827.097      402592.25      6.2796667      41.607973    
     16000   426.25679     -3053201.3      25410.54      -3027790.8      56767.067      402592.25      6.2796667      45.770661    
     17000   423.81694     -3052848.8      25265.093     -3027583.7      56902.227      402592.25      6.2796667      49.929089    
     18000   422.82373     -3052539.6      25205.884     -3027333.7      56918.338      402592.25      6.2796667      54.083519    
     19000   422.57983     -3053072.9      25191.345     -3027881.6      56949.792      402592.25      6.2796667      58.234823    
     20000   426.70697     -3052577.9      25437.377     -3027140.5      56839.633      402592.25      6.2796667      62.398521    
Loop time of 62.3985 on 1 procs for 15000 steps with 20000 atoms

Performance: 41.539 ns/day, 0.578 hours/ns, 240.390 timesteps/s, 4.808 Matom-step/s
100.0% CPU use with 1 MPI tasks x 1 OpenMP threads

MPI task timing breakdown:
Section |  min time  |  avg time  |  max time  |%varavg| %total
---------------------------------------------------------------
Pair    | 7.5604     | 7.5604     | 7.5604     |   0.0 | 12.12
Neigh   | 0.46839    | 0.46839    | 0.46839    |   0.0 |  0.75
Comm    | 0.37329    | 0.37329    | 0.37329    |   0.0 |  0.60
Output  | 0.0052979  | 0.0052979  | 0.0052979  |   0.0 |  0.01
Modify  | 53.386     | 53.386     | 53.386     |   0.0 | 85.56
Other   |            | 0.6048     |            |       |  0.97

Nlocal:          20000 ave       20000 max       20000 min
Histogram: 1 0 0 0 0 0 0 0 0 0
Nghost:          32512 ave       32512 max       32512 min
Histogram: 1 0 0 0 0 0 0 0 0 0
Neighs:      6.848e+06 ave   6.848e+06 max   6.848e+06 min
Histogram: 1 0 0 0 0 0 0 0 0 0
FullNghs:  1.14124e+07 ave 1.14124e+07 max 1.14124e+07 min
Histogram: 1 0 0 0 0 0 0 0 0 0

Total # of neighbors = 11412408
Ave neighs/atom = 570.6204
Neighbor list builds = 294
Dangerous builds = 0
