LAMMPS (22 Jul 2025 - Update 2)
KOKKOS mode with Kokkos version 4.6.2 is enabled
  will use up to 1 GPU(s) per node
  using 1 OpenMP thread(s) per MPI task
package kokkos
# H100 GPU-Optimized LAMMPS input for EPSR simulation of EGaIn eutectic alloy
# Composition: Ga0.858In0.142
# Temperature: 150Â°C (423.15 K)
# Potential: LJ + Empirical Potential (table)
# GPU: Using KOKKOS for H100 (Hopper architecture)

# ========== KOKKOS Initialization (CRITICAL: Must be first) ==========
# CRITICAL FIX: newton off prevents KOKKOS errors on H100
# Note: pair_style table does not have /kk support, but will run on CPU while LJ runs on GPU
package         kokkos neigh full newton off

# ========== Initialization ==========
units           real
atom_style      atomic
boundary        p p p

# ========== Force field ==========
# Use hybrid/overlay to combine LJ (GPU-accelerated) and table (CPU)
# The -sf kk flag will automatically use lj/cut/kk while table runs on CPU
# NOTE: pair_style must be defined BEFORE read_data if data file contains Pair Coeffs section
pair_style      hybrid/overlay lj/cut 12.0 table linear 200

# ========== Read structure ==========
# Use LJ-equilibrated structure as initial configuration (more stable)
shell           mkdir -p outputs
# nocoeff skips Pair Coeffs section which is incompatible with hybrid/overlay
read_data       outputs/final_structure_lj_H100.data nocoeff
Reading data file ...
  orthogonal box = (0 0 0) to (73.839453 73.839453 73.839453)
  1 by 1 by 1 MPI processor grid
WARNING: Pair style lj/cut/kk in data file differs from currently defined pair style zero (src/read_data.cpp:811)
  reading atoms ...
  20000 atoms
  reading velocities ...
  20000 velocities
  read_data CPU = 0.097 seconds

# LJ potential (GPU-accelerated with -sf kk flag)
pair_coeff      1 1 lj/cut 0.430 2.70    # Ga-Ga
pair_coeff      2 2 lj/cut 0.430 3.11    # In-In
pair_coeff      1 2 lj/cut 0.430 2.905   # Ga-In

# Empirical potential (from table files - runs on CPU)
# Table format: r, U(r), F(r)
pair_coeff      1 1 table data/ep_GaGa.table EP_GAGA 12.0
pair_coeff      2 2 table data/ep_InIn.table EP_ININ 12.0
pair_coeff      1 2 table data/ep_GaIn.table EP_GAIN 12.0

# ========== Settings ==========
mass            1 69.723    # Ga
mass            2 114.818   # In

# Optimized neighbor list for GPU
neighbor        2.0 bin
neigh_modify    delay 0 every 1 check yes binsize 4.0

# ========== Initial velocity ==========
# Re-initialize velocities for this temperature
velocity        all create 423.15 12345 dist gaussian

# ========== Thermodynamic output ==========
thermo          1000
thermo_style    custom step temp pe ke etotal press vol density cpu

# ========== Quick minimization for stability ==========
print "========== Energy Minimization =========="
========== Energy Minimization ==========
minimize        1.0e-4 1.0e-6 1000 10000
Generated 0 of 1 mixed pair_coeff terms from geometric mixing rule
Neighbor list info ...
  update: every = 1 steps, delay = 0 steps, check = yes
  max neighbors/atom: 2000, page size: 100000
  master list distance cutoff = 14
  ghost atom cutoff = 14
  binsize = 4, bins = 19 19 19
  2 neighbor lists, perpetual/occasional/extra = 2 0 0
  (1) pair lj/cut, perpetual
      attributes: full, newton off, kokkos_device
      pair build: full/bin/kk/device
      stencil: full/bin/3d
      bin: kk/device
  (2) pair table, perpetual, copy from (1)
      attributes: full, newton off, kokkos_device
      pair build: copy/kk/device
      stencil: none
      bin: none
WARNING: Fix MINIMIZE/kk not compatible with sending data in Kokkos communication (src/KOKKOS/comm_kokkos.cpp:767)
WARNING: Fix with atom-based arrays not compatible with sending data in Kokkos communication, switching to classic exchange/border communication (src/KOKKOS/comm_kokkos.cpp:780)
WARNING: Fix MINIMIZE/kk not compatible with Kokkos sorting on device (src/KOKKOS/atom_kokkos.cpp:212)
WARNING: Fix with atom-based arrays not compatible with Kokkos sorting on device, switching to classic host sorting (src/KOKKOS/atom_kokkos.cpp:218)
Per MPI rank memory allocation (min/avg/max) = 13.71 | 13.71 | 13.71 Mbytes
   Step          Temp          PotEng         KinEng         TotEng         Press          Volume        Density          CPU      
         0   423.15        -957904.67      25225.334     -932679.34      39803.375      402592.25      6.2796667      0            
        22   423.15        -981038.99      25225.334     -955813.65      31416.15       402592.25      6.2796667      0.038228845  
Loop time of 0.0382363 on 1 procs for 22 steps with 20000 atoms

98.0% CPU use with 1 MPI tasks x 1 OpenMP threads

Minimization stats:
  Stopping criterion = energy tolerance
  Energy initial, next-to-last, final = 
     -957904.673741573  -980949.206339144  -981038.986509904
  Force two-norm initial, final = 1380.7182 84.949865
  Force max component initial, final = 43.066566 2.4638629
  Final line search alpha, max atom move = 0.006603983 0.016271309
  Iterations, force evaluations = 22 22

MPI task timing breakdown:
Section |  min time  |  avg time  |  max time  |%varavg| %total
---------------------------------------------------------------
Pair    | 0.027896   | 0.027896   | 0.027896   |   0.0 | 72.96
Neigh   | 0.0013105  | 0.0013105  | 0.0013105  |   0.0 |  3.43
Comm    | 0.0027703  | 0.0027703  | 0.0027703  |   0.0 |  7.25
Output  | 0          | 0          | 0          |   0.0 |  0.00
Modify  | 0          | 0          | 0          |   0.0 |  0.00
Other   |            | 0.006259   |            |       | 16.37

Nlocal:          20000 ave       20000 max       20000 min
Histogram: 1 0 0 0 0 0 0 0 0 0
Nghost:          32450 ave       32450 max       32450 min
Histogram: 1 0 0 0 0 0 0 0 0 0
Neighs:              0 ave           0 max           0 min
Histogram: 1 0 0 0 0 0 0 0 0 0
FullNghs:  1.14138e+07 ave 1.14138e+07 max 1.14138e+07 min
Histogram: 1 0 0 0 0 0 0 0 0 0

Total # of neighbors = 11413766
Ave neighs/atom = 570.6883
Neighbor list builds = 1
Dangerous builds = 0
reset_timestep  0

# ========== RDF computation ==========
# Compute total and partial pair distribution functions
compute         myrdf all rdf 200 1 1 1 2 2 2 cutoff 12.0

# Time-average RDF output
fix             rdfout all ave/time 100 10 1000 c_myrdf[*] file rdf.dat mode vector

# ========== Equilibration (NVT) ==========
print "========== H100 GPU Equilibration =========="
========== H100 GPU Equilibration ==========

# Start with small timestep for stability
timestep        0.5

fix             nvt all nvt temp 423.15 423.15 100.0
run             5000
Generated 0 of 1 mixed pair_coeff terms from geometric mixing rule
Neighbor list info ...
  update: every = 1 steps, delay = 0 steps, check = yes
  max neighbors/atom: 2000, page size: 100000
  master list distance cutoff = 14
  ghost atom cutoff = 14
  binsize = 4, bins = 19 19 19
  3 neighbor lists, perpetual/occasional/extra = 2 1 0
  (1) pair lj/cut, perpetual
      attributes: full, newton off, kokkos_device
      pair build: full/bin/kk/device
      stencil: full/bin/3d
      bin: kk/device
  (2) pair table, perpetual, copy from (1)
      attributes: full, newton off, kokkos_device
      pair build: copy/kk/device
      stencil: none
      bin: none
  (3) compute rdf, occasional
      attributes: half, newton off
      pair build: half/bin/atomonly/newtoff
      stencil: full/bin/3d
      bin: standard
Per MPI rank memory allocation (min/avg/max) = 12.06 | 12.06 | 12.06 Mbytes
   Step          Temp          PotEng         KinEng         TotEng         Press          Volume        Density          CPU      
         0   423.15        -981038.99      25225.334     -955813.65      31416.15       402592.25      6.2796667      0            
      1000   352.00884     -967005.14      20984.381     -946020.76      39670.566      402592.25      6.2796667      3.0830975    
      2000   430.70744     -962491.48      25675.857     -936815.62      43018.068      402592.25      6.2796667      5.9537043    
      3000   428.43686     -962619.41      25540.501     -937078.91      42902.197      402592.25      6.2796667      9.0183528    
      4000   420.99263     -963162.62      25096.726     -938065.89      42399.248      402592.25      6.2796667      12.090913    
      5000   423.87786     -963277.69      25268.724     -938008.97      42639.179      402592.25      6.2796667      15.163971    
Loop time of 15.164 on 1 procs for 5000 steps with 20000 atoms

Performance: 14.244 ns/day, 1.685 hours/ns, 329.729 timesteps/s, 6.595 Matom-step/s
99.9% CPU use with 1 MPI tasks x 1 OpenMP threads

MPI task timing breakdown:
Section |  min time  |  avg time  |  max time  |%varavg| %total
---------------------------------------------------------------
Pair    | 2.5109     | 2.5109     | 2.5109     |   0.0 | 16.56
Neigh   | 0.037614   | 0.037614   | 0.037614   |   0.0 |  0.25
Comm    | 0.05026    | 0.05026    | 0.05026    |   0.0 |  0.33
Output  | 0.0018238  | 0.0018238  | 0.0018238  |   0.0 |  0.01
Modify  | 12.391     | 12.391     | 12.391     |   0.0 | 81.72
Other   |            | 0.172      |            |       |  1.13

Nlocal:          20000 ave       20000 max       20000 min
Histogram: 1 0 0 0 0 0 0 0 0 0
Nghost:          32478 ave       32478 max       32478 min
Histogram: 1 0 0 0 0 0 0 0 0 0
Neighs:    6.85803e+06 ave 6.85803e+06 max 6.85803e+06 min
Histogram: 1 0 0 0 0 0 0 0 0 0
FullNghs:  1.14198e+07 ave 1.14198e+07 max 1.14198e+07 min
Histogram: 1 0 0 0 0 0 0 0 0 0

Total # of neighbors = 11419764
Ave neighs/atom = 570.9882
Neighbor list builds = 23
Dangerous builds = 0
unfix           nvt

# Increase timestep to normal
timestep        2.0

fix             nvt all nvt temp 423.15 423.15 100.0
run             15000
Generated 0 of 1 mixed pair_coeff terms from geometric mixing rule
Per MPI rank memory allocation (min/avg/max) = 38.39 | 38.39 | 38.39 Mbytes
   Step          Temp          PotEng         KinEng         TotEng         Press          Volume        Density          CPU      
      5000   423.87786     -963277.69      25268.724     -938008.97      42639.179      402592.25      6.2796667      0            
      6000   419.16139     -963085.35      24987.56      -938097.79      42519.862      402592.25      6.2796667      4.1586668    
      7000   424.80998     -963090.48      25324.291     -937766.19      42544.813      402592.25      6.2796667      8.312853     
      8000   427.9028      -962700.15      25508.664     -937191.49      42858.356      402592.25      6.2796667      12.469608    
      9000   421.32324     -962956.24      25116.435     -937839.81      42756.048      402592.25      6.2796667      16.623501    
     10000   426.95853     -962786.7       25452.373     -937334.33      42767.903      402592.25      6.2796667      20.768769    
     11000   428.96579     -963406.23      25572.032     -937834.2       42645.084      402592.25      6.2796667      24.930769    
     12000   424.75083     -963111.19      25320.765     -937790.42      42450.865      402592.25      6.2796667      29.089452    
     13000   419.47103     -962959.84      25006.019     -937953.82      42682.236      402592.25      6.2796667      33.244402    
     14000   424.35355     -963238.52      25297.081     -937941.43      42557.661      402592.25      6.2796667      37.412687    
     15000   422.07213     -963001.72      25161.079     -937840.65      42675.201      402592.25      6.2796667      41.564676    
     16000   423.66545     -962641.22      25256.062     -937385.16      42714.065      402592.25      6.2796667      45.718075    
     17000   423.38495     -962909.09      25239.34      -937669.75      42609.61       402592.25      6.2796667      49.870752    
     18000   422.32884     -962887.03      25176.382     -937710.64      42720.868      402592.25      6.2796667      54.033025    
     19000   423.4539      -963026         25243.45      -937782.55      42642.353      402592.25      6.2796667      58.188392    
     20000   422.40885     -963201.11      25181.152     -938019.95      42785.583      402592.25      6.2796667      62.354819    
Loop time of 62.3548 on 1 procs for 15000 steps with 20000 atoms

Performance: 41.569 ns/day, 0.577 hours/ns, 240.559 timesteps/s, 4.811 Matom-step/s
100.0% CPU use with 1 MPI tasks x 1 OpenMP threads

MPI task timing breakdown:
Section |  min time  |  avg time  |  max time  |%varavg| %total
---------------------------------------------------------------
Pair    | 7.5864     | 7.5864     | 7.5864     |   0.0 | 12.17
Neigh   | 0.46672    | 0.46672    | 0.46672    |   0.0 |  0.75
Comm    | 0.37414    | 0.37414    | 0.37414    |   0.0 |  0.60
Output  | 0.0052387  | 0.0052387  | 0.0052387  |   0.0 |  0.01
Modify  | 53.317     | 53.317     | 53.317     |   0.0 | 85.51
Other   |            | 0.6053     |            |       |  0.97

Nlocal:          20000 ave       20000 max       20000 min
Histogram: 1 0 0 0 0 0 0 0 0 0
Nghost:          32440 ave       32440 max       32440 min
Histogram: 1 0 0 0 0 0 0 0 0 0
Neighs:    6.85445e+06 ave 6.85445e+06 max 6.85445e+06 min
Histogram: 1 0 0 0 0 0 0 0 0 0
FullNghs:  1.14218e+07 ave 1.14218e+07 max 1.14218e+07 min
Histogram: 1 0 0 0 0 0 0 0 0 0

Total # of neighbors = 11421796
Ave neighs/atom = 571.0898
Neighbor list builds = 294
Dangerous builds = 0
unfix           nvt

# ========== Production (NVT) ==========
print "========== H100 GPU Production run =========="
========== H100 GPU Production run ==========

fix             nvt all nvt temp 423.15 423.15 100.0

# Reset RDF for production run
uncompute       myrdf
compute         myrdf all rdf 200 1 1 1 2 2 2 cutoff 12.0
unfix           rdfout
fix             rdfout all ave/time 100 10 1000 c_myrdf[*] file rdf.dat mode vector

run             50000
Generated 0 of 1 mixed pair_coeff terms from geometric mixing rule
Neighbor list info ...
  update: every = 1 steps, delay = 0 steps, check = yes
  max neighbors/atom: 2000, page size: 100000
  master list distance cutoff = 14
  ghost atom cutoff = 14
  binsize = 4, bins = 19 19 19
  3 neighbor lists, perpetual/occasional/extra = 2 1 0
  (1) pair lj/cut, perpetual
      attributes: full, newton off, kokkos_device
      pair build: full/bin/kk/device
      stencil: full/bin/3d
      bin: kk/device
  (2) pair table, perpetual, copy from (1)
      attributes: full, newton off, kokkos_device
      pair build: copy/kk/device
      stencil: none
      bin: none
  (3) compute rdf, occasional
      attributes: half, newton off
      pair build: half/bin/atomonly/newtoff
      stencil: full/bin/3d
      bin: standard
Per MPI rank memory allocation (min/avg/max) = 12.06 | 12.06 | 12.06 Mbytes
   Step          Temp          PotEng         KinEng         TotEng         Press          Volume        Density          CPU      
     20000   422.40885     -963201.11      25181.152     -938019.95      42785.583      402592.25      6.2796667      0            
     21000   424.33091     -962822.19      25295.732     -937526.45      42653.586      402592.25      6.2796667      4.1758921    
     22000   424.52116     -963077.46      25307.074     -937770.39      42456.519      402592.25      6.2796667      8.3419655    
     23000   422.62395     -963128.56      25193.974     -937934.59      42596.819      402592.25      6.2796667      12.508159    
     24000   424.11368     -962545.99      25282.782     -937263.21      42706.146      402592.25      6.2796667      16.687041    
     25000   422.55372     -963187.6       25189.788     -937997.82      42520.378      402592.25      6.2796667      20.850825    
     26000   423.36934     -963319.32      25238.41      -938080.91      42704.417      402592.25      6.2796667      25.028291    
     27000   425.97604     -962670.59      25393.803     -937276.78      42771.835      402592.25      6.2796667      29.1938      
     28000   422.64323     -962743.3       25195.124     -937548.17      42710.538      402592.25      6.2796667      33.365733    
     29000   419.4117      -962737.56      25002.482     -937735.07      42766.953      402592.25      6.2796667      37.529494    
     30000   420.89513     -962664.13      25090.914     -937573.22      42711.319      402592.25      6.2796667      41.701228    
     31000   422.86316     -962724.73      25208.235     -937516.5       42729.402      402592.25      6.2796667      45.887606    
     32000   427.1554      -962620.3       25464.109     -937156.19      42797.371      402592.25      6.2796667      50.080677    
     33000   423.06994     -963133.65      25220.562     -937913.09      42731.744      402592.25      6.2796667      54.257266    
     34000   418.97237     -962719.73      24976.292     -937743.44      42633.448      402592.25      6.2796667      58.429036    
     35000   419.32075     -962800.19      24997.06      -937803.13      42615.699      402592.25      6.2796667      62.593869    
     36000   419.99635     -962561.06      25037.335     -937523.73      42888.823      402592.25      6.2796667      66.766835    
     37000   424.92109     -963007.16      25330.915     -937676.25      42589.172      402592.25      6.2796667      70.942099    
     38000   421.99688     -963043.08      25156.593     -937886.49      42614.612      402592.25      6.2796667      75.108495    
     39000   422.3603      -962980.37      25178.257     -937802.11      42514.235      402592.25      6.2796667      79.277355    
     40000   422.90456     -962937.08      25210.702     -937726.38      42608.75       402592.25      6.2796667      83.454257    
     41000   424.71415     -962840.03      25318.578     -937521.46      42625.885      402592.25      6.2796667      87.621787    
     42000   421.29691     -962704.95      25114.866     -937590.08      42650.391      402592.25      6.2796667      91.795759    
     43000   417.99091     -963268.03      24917.784     -938350.25      42546.727      402592.25      6.2796667      95.951723    
     44000   420.30145     -962601.4       25055.523     -937545.88      42717.229      402592.25      6.2796667      100.12637    
     45000   424.87976     -963023.13      25328.451     -937694.68      42612.676      402592.25      6.2796667      104.29851    
     46000   423.9936      -962889.39      25275.624     -937613.76      42780.69       402592.25      6.2796667      108.46324    
     47000   421.39973     -962621.11      25120.995     -937500.12      42882.351      402592.25      6.2796667      112.6362     
     48000   425.16298     -962730.1       25345.334     -937384.76      42649.441      402592.25      6.2796667      116.81557    
     49000   423.20558     -963109.06      25228.648     -937880.42      42437.528      402592.25      6.2796667      120.98487    
     50000   420.7196      -962913.01      25080.45      -937832.56      42669.857      402592.25      6.2796667      125.15177    
     51000   421.27751     -962963.27      25113.709     -937849.56      42622.744      402592.25      6.2796667      129.32554    
     52000   424.71308     -963091.28      25318.515     -937772.76      42746.919      402592.25      6.2796667      133.49693    
     53000   428.1769      -962654.92      25525.004     -937129.91      42876.75       402592.25      6.2796667      137.67144    
     54000   428.20227     -962670.3       25526.516     -937143.78      42575.77       402592.25      6.2796667      141.83925    
     55000   423.11571     -962587.13      25223.29      -937363.84      42739.417      402592.25      6.2796667      146.00589    
     56000   423.06071     -962631.54      25220.011     -937411.53      42744.551      402592.25      6.2796667      150.18044    
     57000   424.58572     -962794.08      25310.922     -937483.16      42612.019      402592.25      6.2796667      154.35464    
     58000   423.79497     -962994.76      25263.783     -937730.98      42763.548      402592.25      6.2796667      158.52022    
     59000   418.98355     -962779.58      24976.959     -937802.62      42698.947      402592.25      6.2796667      162.68642    
     60000   419.52617     -962728.24      25009.306     -937718.94      42539.525      402592.25      6.2796667      166.84667    
     61000   422.33097     -962930.2       25176.509     -937753.69      42640.078      402592.25      6.2796667      171.01677    
     62000   421.71918     -962852.07      25140.038     -937712.03      42465.215      402592.25      6.2796667      175.18921    
     63000   422.34567     -962622.97      25177.386     -937445.59      42882.437      402592.25      6.2796667      179.35374    
     64000   424.52608     -962939.12      25307.367     -937631.75      42726.896      402592.25      6.2796667      183.52407    
     65000   421.24446     -962530.96      25111.739     -937419.22      42829.329      402592.25      6.2796667      187.67331    
     66000   425.91047     -962974.79      25389.894     -937584.9       42760.663      402592.25      6.2796667      191.83691    
     67000   425.80249     -962776.24      25383.457     -937392.78      42620.361      402592.25      6.2796667      196.00422    
     68000   417.24911     -962804.19      24873.563     -937930.63      42703.726      402592.25      6.2796667      200.16763    
     69000   425.83861     -962932.77      25385.611     -937547.16      42558.875      402592.25      6.2796667      204.33573    
     70000   429.02324     -963321.28      25575.457     -937745.83      42578.124      402592.25      6.2796667      208.51469    
Loop time of 208.515 on 1 procs for 50000 steps with 20000 atoms

Performance: 41.436 ns/day, 0.579 hours/ns, 239.791 timesteps/s, 4.796 Matom-step/s
100.0% CPU use with 1 MPI tasks x 1 OpenMP threads

MPI task timing breakdown:
Section |  min time  |  avg time  |  max time  |%varavg| %total
---------------------------------------------------------------
Pair    | 25.268     | 25.268     | 25.268     |   0.0 | 12.12
Neigh   | 1.5454     | 1.5454     | 1.5454     |   0.0 |  0.74
Comm    | 1.248      | 1.248      | 1.248      |   0.0 |  0.60
Output  | 0.017737   | 0.017737   | 0.017737   |   0.0 |  0.01
Modify  | 178.42     | 178.42     | 178.42     |   0.0 | 85.57
Other   |            | 2.017      |            |       |  0.97

Nlocal:          20000 ave       20000 max       20000 min
Histogram: 1 0 0 0 0 0 0 0 0 0
Nghost:          32486 ave       32486 max       32486 min
Histogram: 1 0 0 0 0 0 0 0 0 0
Neighs:    6.85664e+06 ave 6.85664e+06 max 6.85664e+06 min
Histogram: 1 0 0 0 0 0 0 0 0 0
FullNghs:  1.14219e+07 ave 1.14219e+07 max 1.14219e+07 min
Histogram: 1 0 0 0 0 0 0 0 0 0

Total # of neighbors = 11421866
Ave neighs/atom = 571.0933
Neighbor list builds = 976
Dangerous builds = 0
unfix           nvt

# ========== Finalize ==========
print "========== H100 GPU Simulation completed =========="
========== H100 GPU Simulation completed ==========

# Write restart file for next iteration (use fixed name to avoid shell command issues)
write_restart   outputs/restart.0.data
System init for write_restart ...
Generated 0 of 1 mixed pair_coeff terms from geometric mixing rule

# Final statistics
variable        density_final equal density
variable        temp_final equal temp
variable        press_final equal press

print "========================================="
=========================================
print "FINAL RESULTS:"
FINAL RESULTS:
print "  Density:     ${density_final} g/cm^3"
  Density:     6.27966666056994 g/cm^3
print "  Temperature: ${temp_final} K"
  Temperature: 429.02324356805 K
print "  Pressure:    ${press_final} bar"
  Pressure:    42578.1238690641 bar
print "========================================="
=========================================

print "RDF written to rdf.dat"
RDF written to rdf.dat
print "Restart file written to outputs/restart.0.data"
Restart file written to outputs/restart.0.data
Total wall time: 0:04:46
