LAMMPS (22 Jul 2025 - Update 2)
KOKKOS mode with Kokkos version 4.6.2 is enabled
  will use up to 1 GPU(s) per node
  using 1 OpenMP thread(s) per MPI task
package kokkos
# H100 GPU-Optimized LAMMPS input for EPSR simulation of EGaIn eutectic alloy
# Composition: Ga0.858In0.142
# Temperature: 150Â°C (423.15 K)
# Potential: LJ + Empirical Potential (table)
# GPU: Using KOKKOS for H100 (Hopper architecture)

# ========== KOKKOS Initialization (CRITICAL: Must be first) ==========
# CRITICAL FIX: newton off prevents KOKKOS errors on H100
# Note: pair_style table does not have /kk support, but will run on CPU while LJ runs on GPU
package         kokkos neigh full newton off

# ========== Initialization ==========
units           real
atom_style      atomic
boundary        p p p

# ========== Force field ==========
# Use hybrid/overlay to combine LJ (GPU-accelerated) and table (CPU)
# The -sf kk flag will automatically use lj/cut/kk while table runs on CPU
# NOTE: pair_style must be defined BEFORE read_data if data file contains Pair Coeffs section
pair_style      hybrid/overlay lj/cut 12.0 table linear 200

# ========== Read structure ==========
# Use LJ-equilibrated structure as initial configuration (more stable)
shell           mkdir -p outputs
# nocoeff skips Pair Coeffs section which is incompatible with hybrid/overlay
read_data       outputs/final_structure_lj_H100.data nocoeff
Reading data file ...
  orthogonal box = (0 0 0) to (73.839453 73.839453 73.839453)
  1 by 1 by 1 MPI processor grid
WARNING: Pair style lj/cut/kk in data file differs from currently defined pair style zero (src/read_data.cpp:811)
  reading atoms ...
  20000 atoms
  reading velocities ...
  20000 velocities
  read_data CPU = 0.097 seconds

# LJ potential (GPU-accelerated with -sf kk flag)
pair_coeff      1 1 lj/cut 0.430 2.70    # Ga-Ga
pair_coeff      2 2 lj/cut 0.430 3.11    # In-In
pair_coeff      1 2 lj/cut 0.430 2.905   # Ga-In

# Empirical potential (from table files - runs on CPU)
# Table format: r, U(r), F(r)
pair_coeff      1 1 table data/ep_GaGa.table EP_GAGA 12.0
pair_coeff      2 2 table data/ep_InIn.table EP_ININ 12.0
pair_coeff      1 2 table data/ep_GaIn.table EP_GAIN 12.0

# ========== Settings ==========
mass            1 69.723    # Ga
mass            2 114.818   # In

# Optimized neighbor list for GPU
neighbor        2.0 bin
neigh_modify    delay 0 every 1 check yes binsize 4.0

# ========== Initial velocity ==========
# Re-initialize velocities for this temperature
velocity        all create 423.15 12345 dist gaussian

# ========== Thermodynamic output ==========
thermo          1000
thermo_style    custom step temp pe ke etotal press vol density cpu

# ========== Quick minimization for stability ==========
print "========== Energy Minimization =========="
========== Energy Minimization ==========
minimize        1.0e-4 1.0e-6 1000 10000
Generated 0 of 1 mixed pair_coeff terms from geometric mixing rule
Neighbor list info ...
  update: every = 1 steps, delay = 0 steps, check = yes
  max neighbors/atom: 2000, page size: 100000
  master list distance cutoff = 14
  ghost atom cutoff = 14
  binsize = 4, bins = 19 19 19
  2 neighbor lists, perpetual/occasional/extra = 2 0 0
  (1) pair lj/cut, perpetual
      attributes: full, newton off, kokkos_device
      pair build: full/bin/kk/device
      stencil: full/bin/3d
      bin: kk/device
  (2) pair table, perpetual, copy from (1)
      attributes: full, newton off, kokkos_device
      pair build: copy/kk/device
      stencil: none
      bin: none
WARNING: Fix MINIMIZE/kk not compatible with sending data in Kokkos communication (src/KOKKOS/comm_kokkos.cpp:767)
WARNING: Fix with atom-based arrays not compatible with sending data in Kokkos communication, switching to classic exchange/border communication (src/KOKKOS/comm_kokkos.cpp:780)
WARNING: Fix MINIMIZE/kk not compatible with Kokkos sorting on device (src/KOKKOS/atom_kokkos.cpp:212)
WARNING: Fix with atom-based arrays not compatible with Kokkos sorting on device, switching to classic host sorting (src/KOKKOS/atom_kokkos.cpp:218)
Per MPI rank memory allocation (min/avg/max) = 13.71 | 13.71 | 13.71 Mbytes
   Step          Temp          PotEng         KinEng         TotEng         Press          Volume        Density          CPU      
         0   423.15        -2109946.6      25225.334     -2084721.2      50291.254      402592.25      6.2796667      0            
        16   423.15        -2136444.6      25225.334     -2111219.2      44544.304      402592.25      6.2796667      0.024864294  
Loop time of 0.0248702 on 1 procs for 16 steps with 20000 atoms

100.0% CPU use with 1 MPI tasks x 1 OpenMP threads

Minimization stats:
  Stopping criterion = energy tolerance
  Energy initial, next-to-last, final = 
     -2109946.57193597   -2136274.0348156  -2136444.57990155
  Force two-norm initial, final = 1371.9824 125.13496
  Force max component initial, final = 42.959433 3.5576978
  Final line search alpha, max atom move = 0.0064791546 0.023050874
  Iterations, force evaluations = 16 16

MPI task timing breakdown:
Section |  min time  |  avg time  |  max time  |%varavg| %total
---------------------------------------------------------------
Pair    | 0.020095   | 0.020095   | 0.020095   |   0.0 | 80.80
Neigh   | 0          | 0          | 0          |   0.0 |  0.00
Comm    | 0.0010093  | 0.0010093  | 0.0010093  |   0.0 |  4.06
Output  | 0          | 0          | 0          |   0.0 |  0.00
Modify  | 0          | 0          | 0          |   0.0 |  0.00
Other   |            | 0.003766   |            |       | 15.14

Nlocal:          20000 ave       20000 max       20000 min
Histogram: 1 0 0 0 0 0 0 0 0 0
Nghost:          32437 ave       32437 max       32437 min
Histogram: 1 0 0 0 0 0 0 0 0 0
Neighs:              0 ave           0 max           0 min
Histogram: 1 0 0 0 0 0 0 0 0 0
FullNghs:  1.13998e+07 ave 1.13998e+07 max 1.13998e+07 min
Histogram: 1 0 0 0 0 0 0 0 0 0

Total # of neighbors = 11399814
Ave neighs/atom = 569.9907
Neighbor list builds = 0
Dangerous builds = 0
reset_timestep  0

# ========== RDF computation ==========
# Compute total and partial pair distribution functions
compute         myrdf all rdf 200 1 1 1 2 2 2 cutoff 12.0

# Time-average RDF output
fix             rdfout all ave/time 100 10 1000 c_myrdf[*] file rdf.dat mode vector

# ========== Equilibration (NVT) ==========
print "========== H100 GPU Equilibration =========="
========== H100 GPU Equilibration ==========

# Start with small timestep for stability
timestep        0.5

fix             nvt all nvt temp 423.15 423.15 100.0
run             5000
Generated 0 of 1 mixed pair_coeff terms from geometric mixing rule
Neighbor list info ...
  update: every = 1 steps, delay = 0 steps, check = yes
  max neighbors/atom: 2000, page size: 100000
  master list distance cutoff = 14
  ghost atom cutoff = 14
  binsize = 4, bins = 19 19 19
  3 neighbor lists, perpetual/occasional/extra = 2 1 0
  (1) pair lj/cut, perpetual
      attributes: full, newton off, kokkos_device
      pair build: full/bin/kk/device
      stencil: full/bin/3d
      bin: kk/device
  (2) pair table, perpetual, copy from (1)
      attributes: full, newton off, kokkos_device
      pair build: copy/kk/device
      stencil: none
      bin: none
  (3) compute rdf, occasional
      attributes: half, newton off
      pair build: half/bin/atomonly/newtoff
      stencil: full/bin/3d
      bin: standard
Per MPI rank memory allocation (min/avg/max) = 12.06 | 12.06 | 12.06 Mbytes
   Step          Temp          PotEng         KinEng         TotEng         Press          Volume        Density          CPU      
         0   423.15        -2136444.6      25225.334     -2111219.2      44544.304      402592.25      6.2796667      0            
      1000   366.06435     -2126323.6      21822.275     -2104501.3      52088.526      402592.25      6.2796667      3.0888081    
      2000   429.81825     -2122814.9      25622.85      -2097192        54590.731      402592.25      6.2796667      6.1733434    
      3000   427.99029     -2122778.6      25513.879     -2097264.7      54490.962      402592.25      6.2796667      9.2524666    
      4000   426.38769     -2123908.5      25418.343     -2098490.2      54167.343      402592.25      6.2796667      12.133982    
      5000   421.97281     -2123414.3      25155.158     -2098259.1      54259.426      402592.25      6.2796667      15.217786    
Loop time of 15.2178 on 1 procs for 5000 steps with 20000 atoms

Performance: 14.194 ns/day, 1.691 hours/ns, 328.563 timesteps/s, 6.571 Matom-step/s
99.9% CPU use with 1 MPI tasks x 1 OpenMP threads

MPI task timing breakdown:
Section |  min time  |  avg time  |  max time  |%varavg| %total
---------------------------------------------------------------
Pair    | 2.5202     | 2.5202     | 2.5202     |   0.0 | 16.56
Neigh   | 0.037938   | 0.037938   | 0.037938   |   0.0 |  0.25
Comm    | 0.051275   | 0.051275   | 0.051275   |   0.0 |  0.34
Output  | 0.0018846  | 0.0018846  | 0.0018846  |   0.0 |  0.01
Modify  | 12.435     | 12.435     | 12.435     |   0.0 | 81.71
Other   |            | 0.1714     |            |       |  1.13

Nlocal:          20000 ave       20000 max       20000 min
Histogram: 1 0 0 0 0 0 0 0 0 0
Nghost:          32483 ave       32483 max       32483 min
Histogram: 1 0 0 0 0 0 0 0 0 0
Neighs:    6.85319e+06 ave 6.85319e+06 max 6.85319e+06 min
Histogram: 1 0 0 0 0 0 0 0 0 0
FullNghs:  1.14128e+07 ave 1.14128e+07 max 1.14128e+07 min
Histogram: 1 0 0 0 0 0 0 0 0 0

Total # of neighbors = 11412826
Ave neighs/atom = 570.6413
Neighbor list builds = 23
Dangerous builds = 0
unfix           nvt

# Increase timestep to normal
timestep        2.0

fix             nvt all nvt temp 423.15 423.15 100.0
run             15000
Generated 0 of 1 mixed pair_coeff terms from geometric mixing rule
Per MPI rank memory allocation (min/avg/max) = 38.39 | 38.39 | 38.39 Mbytes
   Step          Temp          PotEng         KinEng         TotEng         Press          Volume        Density          CPU      
      5000   421.97281     -2123414.3      25155.158     -2098259.1      54259.426      402592.25      6.2796667      0            
      6000   420.17409     -2123435.6      25047.931     -2098387.6      54349.032      402592.25      6.2796667      4.1696806    
      7000   424.42833     -2123637.1      25301.54      -2098335.6      54407.088      402592.25      6.2796667      8.3357371    
      8000   418.72461     -2122320.2      24961.522     -2097358.7      54352.891      402592.25      6.2796667      12.50595     
      9000   425.39772     -2123227.2      25359.328     -2097867.8      54386.269      402592.25      6.2796667      16.688992    
     10000   419.70869     -2123523.2      25020.186     -2098503        54382.255      402592.25      6.2796667      20.866955    
     11000   424.75835     -2122982        25321.213     -2097660.8      54420.945      402592.25      6.2796667      25.023639    
     12000   424.05962     -2123166.4      25279.559     -2097886.9      54367.992      402592.25      6.2796667      29.189429    
     13000   423.26329     -2123477.4      25232.088     -2098245.4      54213.174      402592.25      6.2796667      33.351831    
     14000   426.32405     -2123289.6      25414.549     -2097875        54293.93       402592.25      6.2796667      37.522262    
     15000   422.83071     -2123245.9      25206.3       -2098039.6      54393.603      402592.25      6.2796667      41.691741    
     16000   424.71922     -2123714.4      25318.881     -2098395.5      54119.616      402592.25      6.2796667      45.860537    
     17000   422.29301     -2123013.9      25174.246     -2097839.6      54327.807      402592.25      6.2796667      50.023917    
     18000   418.58017     -2122877.4      24952.912     -2097924.5      54389.891      402592.25      6.2796667      54.205344    
     19000   420.71101     -2123868.1      25079.938     -2098788.1      54287.094      402592.25      6.2796667      58.379419    
     20000   424.1139      -2123223.7      25282.795     -2097940.9      54421.885      402592.25      6.2796667      62.552486    
Loop time of 62.5525 on 1 procs for 15000 steps with 20000 atoms

Performance: 41.437 ns/day, 0.579 hours/ns, 239.799 timesteps/s, 4.796 Matom-step/s
100.0% CPU use with 1 MPI tasks x 1 OpenMP threads

MPI task timing breakdown:
Section |  min time  |  avg time  |  max time  |%varavg| %total
---------------------------------------------------------------
Pair    | 7.6203     | 7.6203     | 7.6203     |   0.0 | 12.18
Neigh   | 0.47178    | 0.47178    | 0.47178    |   0.0 |  0.75
Comm    | 0.38227    | 0.38227    | 0.38227    |   0.0 |  0.61
Output  | 0.0055756  | 0.0055756  | 0.0055756  |   0.0 |  0.01
Modify  | 53.469     | 53.469     | 53.469     |   0.0 | 85.48
Other   |            | 0.6036     |            |       |  0.96

Nlocal:          20000 ave       20000 max       20000 min
Histogram: 1 0 0 0 0 0 0 0 0 0
Nghost:          32336 ave       32336 max       32336 min
Histogram: 1 0 0 0 0 0 0 0 0 0
Neighs:      6.845e+06 ave   6.845e+06 max   6.845e+06 min
Histogram: 1 0 0 0 0 0 0 0 0 0
FullNghs:   1.1414e+07 ave  1.1414e+07 max  1.1414e+07 min
Histogram: 1 0 0 0 0 0 0 0 0 0

Total # of neighbors = 11413962
Ave neighs/atom = 570.6981
Neighbor list builds = 293
Dangerous builds = 0
unfix           nvt

# ========== Production (NVT) ==========
print "========== H100 GPU Production run =========="
========== H100 GPU Production run ==========

fix             nvt all nvt temp 423.15 423.15 100.0

# Reset RDF for production run
uncompute       myrdf
compute         myrdf all rdf 200 1 1 1 2 2 2 cutoff 12.0
unfix           rdfout
fix             rdfout all ave/time 100 10 1000 c_myrdf[*] file rdf.dat mode vector

run             50000
Generated 0 of 1 mixed pair_coeff terms from geometric mixing rule
Neighbor list info ...
  update: every = 1 steps, delay = 0 steps, check = yes
  max neighbors/atom: 2000, page size: 100000
  master list distance cutoff = 14
  ghost atom cutoff = 14
  binsize = 4, bins = 19 19 19
  3 neighbor lists, perpetual/occasional/extra = 2 1 0
  (1) pair lj/cut, perpetual
      attributes: full, newton off, kokkos_device
      pair build: full/bin/kk/device
      stencil: full/bin/3d
      bin: kk/device
  (2) pair table, perpetual, copy from (1)
      attributes: full, newton off, kokkos_device
      pair build: copy/kk/device
      stencil: none
      bin: none
  (3) compute rdf, occasional
      attributes: half, newton off
      pair build: half/bin/atomonly/newtoff
      stencil: full/bin/3d
      bin: standard
Per MPI rank memory allocation (min/avg/max) = 12.06 | 12.06 | 12.06 Mbytes
   Step          Temp          PotEng         KinEng         TotEng         Press          Volume        Density          CPU      
     20000   424.1139      -2123223.7      25282.795     -2097940.9      54421.885      402592.25      6.2796667      0            
     21000   423.40247     -2123423.6      25240.384     -2098183.2      54302.403      402592.25      6.2796667      4.1633503    
     22000   422.40164     -2123199.2      25180.722     -2098018.5      54339.148      402592.25      6.2796667      8.3218073    
     23000   424.10067     -2123227.1      25282.007     -2097945.1      54252.512      402592.25      6.2796667      12.487517    
     24000   420.98247     -2123251.4      25096.121     -2098155.3      54334.716      402592.25      6.2796667      16.640506    
     25000   422.90645     -2123139.6      25210.815     -2097928.7      54306.976      402592.25      6.2796667      20.813495    
     26000   422.11213     -2123204.7      25163.463     -2098041.2      54485.783      402592.25      6.2796667      24.994837    
     27000   425.63859     -2122648.2      25373.687     -2097274.5      54498.782      402592.25      6.2796667      29.156817    
     28000   423.10512     -2123101.2      25222.659     -2097878.6      54258.625      402592.25      6.2796667      33.316113    
     29000   422.05227     -2123211.8      25159.895     -2098051.9      54333.057      402592.25      6.2796667      37.494764    
     30000   426.76934     -2123089.3      25441.094     -2097648.2      54316.657      402592.25      6.2796667      41.655723    
     31000   426.66103     -2123588.8      25434.638     -2098154.2      54402.622      402592.25      6.2796667      45.819314    
     32000   426.37476     -2123310.6      25417.572     -2097893.1      54316.953      402592.25      6.2796667      49.995223    
     33000   420.62925     -2122581.3      25075.064     -2097506.2      54411.803      402592.25      6.2796667      54.157778    
     34000   421.626       -2122946        25134.484     -2097811.5      54442.49       402592.25      6.2796667      58.321889    
     35000   422.02443     -2123453.6      25158.235     -2098295.4      54401.654      402592.25      6.2796667      62.487485    
     36000   426.21863     -2123639.2      25408.265     -2098230.9      54310.79       402592.25      6.2796667      66.653678    
     37000   424.22767     -2123102.8      25289.577     -2097813.2      54438.861      402592.25      6.2796667      70.823891    
     38000   424.59729     -2123220.2      25311.612     -2097908.6      54276.867      402592.25      6.2796667      74.993663    
     39000   422.21545     -2123262.8      25169.623     -2098093.2      54405.779      402592.25      6.2796667      79.155712    
     40000   421.76351     -2123087.3      25142.681     -2097944.6      54294.63       402592.25      6.2796667      83.320378    
     41000   424.63573     -2123052.7      25313.903     -2097738.8      54304.485      402592.25      6.2796667      87.48996     
     42000   425.4675      -2123008.1      25363.488     -2097644.6      54531.576      402592.25      6.2796667      91.652946    
     43000   425.02581     -2122721.9      25337.157     -2097384.7      54338.119      402592.25      6.2796667      95.810495    
     44000   429.89864     -2123528.3      25627.642     -2097900.7      54410.937      402592.25      6.2796667      99.980597    
     45000   425.00534     -2122926.5      25335.937     -2097590.6      54243.621      402592.25      6.2796667      104.14243    
     46000   423.49031     -2122853.1      25245.621     -2097607.5      54624.375      402592.25      6.2796667      108.31407    
     47000   423.71345     -2123688.5      25258.923     -2098429.6      54275.725      402592.25      6.2796667      112.47191    
     48000   427.02236     -2123637.5      25456.178     -2098181.3      54601.627      402592.25      6.2796667      116.63634    
     49000   424.13736     -2123009.4      25284.194     -2097725.2      54276.442      402592.25      6.2796667      120.81211    
     50000   424.90881     -2123370.2      25330.182     -2098040        54487.236      402592.25      6.2796667      124.97502    
     51000   424.47705     -2123441.9      25304.444     -2098137.5      54248.753      402592.25      6.2796667      129.14863    
     52000   421.83542     -2123709.1      25146.968     -2098562.2      54181.042      402592.25      6.2796667      133.32096    
     53000   425.70367     -2123014.4      25377.567     -2097636.8      54190.691      402592.25      6.2796667      137.49186    
     54000   424.17884     -2123201.3      25286.667     -2097914.7      54267.025      402592.25      6.2796667      141.6749     
     55000   424.11958     -2122965.4      25283.134     -2097682.2      54515.201      402592.25      6.2796667      145.84154    
     56000   423.73025     -2123308.6      25259.925     -2098048.7      54256.773      402592.25      6.2796667      150.01692    
     57000   425.45112     -2123065        25362.511     -2097702.5      54447.855      402592.25      6.2796667      154.19919    
     58000   422.14556     -2123312.7      25165.456     -2098147.3      54196.881      402592.25      6.2796667      158.36936    
     59000   421.83041     -2122249.8      25146.669     -2097103.2      54509.021      402592.25      6.2796667      162.54319    
     60000   421.51219     -2123683.7      25127.699     -2098556        54451.447      402592.25      6.2796667      166.71828    
     61000   424.05368     -2123162.5      25279.206     -2097883.3      54228.751      402592.25      6.2796667      170.88627    
     62000   421.26143     -2123255.2      25112.75      -2098142.5      54430.731      402592.25      6.2796667      175.05721    
     63000   421.09883     -2123201.4      25103.057     -2098098.3      54340.096      402592.25      6.2796667      179.21471    
     64000   421.67079     -2122709.5      25137.154     -2097572.4      54087.481      402592.25      6.2796667      183.37219    
     65000   426.05535     -2123393.6      25398.531     -2097995.1      54148.025      402592.25      6.2796667      187.54781    
     66000   422.95588     -2122820.4      25213.762     -2097606.7      54297.98       402592.25      6.2796667      191.72284    
     67000   423.10834     -2123434        25222.851     -2098211.1      54204.814      402592.25      6.2796667      195.90041    
     68000   421.6458      -2122838.4      25135.664     -2097702.7      54212.237      402592.25      6.2796667      200.07179    
     69000   424.59614     -2123108.5      25311.543     -2097797        54201.559      402592.25      6.2796667      204.24097    
     70000   422.06116     -2123169.4      25160.425     -2098009        54191.036      402592.25      6.2796667      208.40373    
Loop time of 208.404 on 1 procs for 50000 steps with 20000 atoms

Performance: 41.458 ns/day, 0.579 hours/ns, 239.919 timesteps/s, 4.798 Matom-step/s
100.0% CPU use with 1 MPI tasks x 1 OpenMP threads

MPI task timing breakdown:
Section |  min time  |  avg time  |  max time  |%varavg| %total
---------------------------------------------------------------
Pair    | 25.338     | 25.338     | 25.338     |   0.0 | 12.16
Neigh   | 1.5797     | 1.5797     | 1.5797     |   0.0 |  0.76
Comm    | 1.2859     | 1.2859     | 1.2859     |   0.0 |  0.62
Output  | 0.019406   | 0.019406   | 0.019406   |   0.0 |  0.01
Modify  | 178.17     | 178.17     | 178.17     |   0.0 | 85.49
Other   |            | 2.014      |            |       |  0.97

Nlocal:          20000 ave       20000 max       20000 min
Histogram: 1 0 0 0 0 0 0 0 0 0
Nghost:          32429 ave       32429 max       32429 min
Histogram: 1 0 0 0 0 0 0 0 0 0
Neighs:    6.85036e+06 ave 6.85036e+06 max 6.85036e+06 min
Histogram: 1 0 0 0 0 0 0 0 0 0
FullNghs:   1.1414e+07 ave  1.1414e+07 max  1.1414e+07 min
Histogram: 1 0 0 0 0 0 0 0 0 0

Total # of neighbors = 11413976
Ave neighs/atom = 570.6988
Neighbor list builds = 980
Dangerous builds = 0
unfix           nvt

# ========== Finalize ==========
print "========== H100 GPU Simulation completed =========="
========== H100 GPU Simulation completed ==========

# Write restart file for next iteration (use fixed name to avoid shell command issues)
write_restart   outputs/restart.0.data
System init for write_restart ...
Generated 0 of 1 mixed pair_coeff terms from geometric mixing rule

# Final statistics
variable        density_final equal density
variable        temp_final equal temp
variable        press_final equal press

print "========================================="
=========================================
print "FINAL RESULTS:"
FINAL RESULTS:
print "  Density:     ${density_final} g/cm^3"
  Density:     6.27966666056994 g/cm^3
print "  Temperature: ${temp_final} K"
  Temperature: 422.061161202621 K
print "  Pressure:    ${press_final} bar"
  Pressure:    54191.0361834596 bar
print "========================================="
=========================================

print "RDF written to rdf.dat"
RDF written to rdf.dat
print "Restart file written to outputs/restart.0.data"
Restart file written to outputs/restart.0.data
Total wall time: 0:04:46
