LAMMPS (22 Jul 2025 - Update 2)
KOKKOS mode with Kokkos version 4.6.2 is enabled
  will use up to 1 GPU(s) per node
  using 1 OpenMP thread(s) per MPI task
package kokkos
# H100 GPU-Optimized LAMMPS input for EPSR simulation of EGaIn eutectic alloy
# Composition: Ga0.858In0.142
# Temperature: 150Â°C (423.15 K)
# Potential: LJ + Empirical Potential (table)
# GPU: Using KOKKOS for H100 (Hopper architecture)

# ========== KOKKOS Initialization (CRITICAL: Must be first) ==========
# CRITICAL FIX: newton off prevents KOKKOS errors on H100
# Note: pair_style table does not have /kk support, but will run on CPU while LJ runs on GPU
package         kokkos neigh full newton off

# ========== Initialization ==========
units           real
atom_style      atomic
boundary        p p p

# ========== Force field ==========
# Use hybrid/overlay to combine LJ (GPU-accelerated) and table (CPU)
# The -sf kk flag will automatically use lj/cut/kk while table runs on CPU
# NOTE: pair_style must be defined BEFORE read_data if data file contains Pair Coeffs section
pair_style      hybrid/overlay lj/cut 12.0 table linear 200

# ========== Read structure ==========
# Use LJ-equilibrated structure as initial configuration (more stable)
shell           mkdir -p outputs
# nocoeff skips Pair Coeffs section which is incompatible with hybrid/overlay
read_data       outputs/final_structure_lj_H100.data nocoeff
Reading data file ...
  orthogonal box = (0 0 0) to (73.839453 73.839453 73.839453)
  1 by 1 by 1 MPI processor grid
WARNING: Pair style lj/cut/kk in data file differs from currently defined pair style zero (src/read_data.cpp:811)
  reading atoms ...
  20000 atoms
  reading velocities ...
  20000 velocities
  read_data CPU = 0.097 seconds

# LJ potential (GPU-accelerated with -sf kk flag)
pair_coeff      1 1 lj/cut 0.430 2.70    # Ga-Ga
pair_coeff      2 2 lj/cut 0.430 3.11    # In-In
pair_coeff      1 2 lj/cut 0.430 2.905   # Ga-In

# Empirical potential (from table files - runs on CPU)
# Table format: r, U(r), F(r)
pair_coeff      1 1 table data/ep_GaGa.table EP_GAGA 12.0
pair_coeff      2 2 table data/ep_InIn.table EP_ININ 12.0
pair_coeff      1 2 table data/ep_GaIn.table EP_GAIN 12.0

# ========== Settings ==========
mass            1 69.723    # Ga
mass            2 114.818   # In

# Optimized neighbor list for GPU
neighbor        2.0 bin
neigh_modify    delay 0 every 1 check yes binsize 4.0

# ========== Initial velocity ==========
# Re-initialize velocities for this temperature
velocity        all create 423.15 12345 dist gaussian

# ========== Thermodynamic output ==========
thermo          1000
thermo_style    custom step temp pe ke etotal press vol density cpu

# ========== Quick minimization for stability ==========
print "========== Energy Minimization =========="
========== Energy Minimization ==========
minimize        1.0e-4 1.0e-6 1000 10000
Generated 0 of 1 mixed pair_coeff terms from geometric mixing rule
Neighbor list info ...
  update: every = 1 steps, delay = 0 steps, check = yes
  max neighbors/atom: 2000, page size: 100000
  master list distance cutoff = 14
  ghost atom cutoff = 14
  binsize = 4, bins = 19 19 19
  2 neighbor lists, perpetual/occasional/extra = 2 0 0
  (1) pair lj/cut, perpetual
      attributes: full, newton off, kokkos_device
      pair build: full/bin/kk/device
      stencil: full/bin/3d
      bin: kk/device
  (2) pair table, perpetual, copy from (1)
      attributes: full, newton off, kokkos_device
      pair build: copy/kk/device
      stencil: none
      bin: none
WARNING: Fix MINIMIZE/kk not compatible with sending data in Kokkos communication (src/KOKKOS/comm_kokkos.cpp:767)
WARNING: Fix with atom-based arrays not compatible with sending data in Kokkos communication, switching to classic exchange/border communication (src/KOKKOS/comm_kokkos.cpp:780)
WARNING: Fix MINIMIZE/kk not compatible with Kokkos sorting on device (src/KOKKOS/atom_kokkos.cpp:212)
WARNING: Fix with atom-based arrays not compatible with Kokkos sorting on device, switching to classic host sorting (src/KOKKOS/atom_kokkos.cpp:218)
Per MPI rank memory allocation (min/avg/max) = 13.71 | 13.71 | 13.71 Mbytes
   Step          Temp          PotEng         KinEng         TotEng         Press          Volume        Density          CPU      
         0   423.15        -498701.61      25225.334     -473476.28      33031.188      402592.25      6.2796667      0            
        28   423.15        -519604.14      25225.334     -494378.81      21621.128      402592.25      6.2796667      0.045421668  
Loop time of 0.0454283 on 1 procs for 28 steps with 20000 atoms

98.6% CPU use with 1 MPI tasks x 1 OpenMP threads

Minimization stats:
  Stopping criterion = energy tolerance
  Energy initial, next-to-last, final = 
     -498701.609684797  -519553.272829297  -519604.143268734
  Force two-norm initial, final = 1421.7435 67.118243
  Force max component initial, final = 43.094627 3.0185871
  Final line search alpha, max atom move = 0.0090871285 0.027430289
  Iterations, force evaluations = 28 28

MPI task timing breakdown:
Section |  min time  |  avg time  |  max time  |%varavg| %total
---------------------------------------------------------------
Pair    | 0.034481   | 0.034481   | 0.034481   |   0.0 | 75.90
Neigh   | 0.00127    | 0.00127    | 0.00127    |   0.0 |  2.80
Comm    | 0.0027905  | 0.0027905  | 0.0027905  |   0.0 |  6.14
Output  | 0          | 0          | 0          |   0.0 |  0.00
Modify  | 0          | 0          | 0          |   0.0 |  0.00
Other   |            | 0.006887   |            |       | 15.16

Nlocal:          20000 ave       20000 max       20000 min
Histogram: 1 0 0 0 0 0 0 0 0 0
Nghost:          32447 ave       32447 max       32447 min
Histogram: 1 0 0 0 0 0 0 0 0 0
Neighs:              0 ave           0 max           0 min
Histogram: 1 0 0 0 0 0 0 0 0 0
FullNghs:  1.14133e+07 ave 1.14133e+07 max 1.14133e+07 min
Histogram: 1 0 0 0 0 0 0 0 0 0

Total # of neighbors = 11413284
Ave neighs/atom = 570.6642
Neighbor list builds = 1
Dangerous builds = 0
reset_timestep  0

# ========== RDF computation ==========
# Compute total and partial pair distribution functions
compute         myrdf all rdf 200 1 1 1 2 2 2 cutoff 12.0

# Time-average RDF output
fix             rdfout all ave/time 100 10 1000 c_myrdf[*] file rdf.dat mode vector

# ========== Equilibration (NVT) ==========
print "========== H100 GPU Equilibration =========="
========== H100 GPU Equilibration ==========

# Start with small timestep for stability
timestep        0.5

fix             nvt all nvt temp 423.15 423.15 100.0
run             5000
Generated 0 of 1 mixed pair_coeff terms from geometric mixing rule
Neighbor list info ...
  update: every = 1 steps, delay = 0 steps, check = yes
  max neighbors/atom: 2000, page size: 100000
  master list distance cutoff = 14
  ghost atom cutoff = 14
  binsize = 4, bins = 19 19 19
  3 neighbor lists, perpetual/occasional/extra = 2 1 0
  (1) pair lj/cut, perpetual
      attributes: full, newton off, kokkos_device
      pair build: full/bin/kk/device
      stencil: full/bin/3d
      bin: kk/device
  (2) pair table, perpetual, copy from (1)
      attributes: full, newton off, kokkos_device
      pair build: copy/kk/device
      stencil: none
      bin: none
  (3) compute rdf, occasional
      attributes: half, newton off
      pair build: half/bin/atomonly/newtoff
      stencil: full/bin/3d
      bin: standard
Per MPI rank memory allocation (min/avg/max) = 12.06 | 12.06 | 12.06 Mbytes
   Step          Temp          PotEng         KinEng         TotEng         Press          Volume        Density          CPU      
         0   423.15        -519604.14      25225.334     -494378.81      21621.128      402592.25      6.2796667      0            
      1000   346.59389     -504465.57      20661.578     -483803.99      31246.012      402592.25      6.2796667      3.0693134    
      2000   431.28554     -499592.89      25710.32      -473882.57      35269.162      402592.25      6.2796667      5.9334166    
      3000   425.10226     -500137.28      25341.714     -474795.56      34890.251      402592.25      6.2796667      9.0054634    
      4000   420.85297     -500015.43      25088.401     -474927.03      34744.439      402592.25      6.2796667      12.084721    
      5000   425.63796     -500192.9       25373.65      -474819.25      34789.368      402592.25      6.2796667      15.158135    
Loop time of 15.1581 on 1 procs for 5000 steps with 20000 atoms

Performance: 14.250 ns/day, 1.684 hours/ns, 329.856 timesteps/s, 6.597 Matom-step/s
99.9% CPU use with 1 MPI tasks x 1 OpenMP threads

MPI task timing breakdown:
Section |  min time  |  avg time  |  max time  |%varavg| %total
---------------------------------------------------------------
Pair    | 2.5013     | 2.5013     | 2.5013     |   0.0 | 16.50
Neigh   | 0.037876   | 0.037876   | 0.037876   |   0.0 |  0.25
Comm    | 0.051694   | 0.051694   | 0.051694   |   0.0 |  0.34
Output  | 0.0018759  | 0.0018759  | 0.0018759  |   0.0 |  0.01
Modify  | 12.394     | 12.394     | 12.394     |   0.0 | 81.76
Other   |            | 0.1714     |            |       |  1.13

Nlocal:          20000 ave       20000 max       20000 min
Histogram: 1 0 0 0 0 0 0 0 0 0
Nghost:          32534 ave       32534 max       32534 min
Histogram: 1 0 0 0 0 0 0 0 0 0
Neighs:    6.85683e+06 ave 6.85683e+06 max 6.85683e+06 min
Histogram: 1 0 0 0 0 0 0 0 0 0
FullNghs:  1.14176e+07 ave 1.14176e+07 max 1.14176e+07 min
Histogram: 1 0 0 0 0 0 0 0 0 0

Total # of neighbors = 11417634
Ave neighs/atom = 570.8817
Neighbor list builds = 23
Dangerous builds = 0
unfix           nvt

# Increase timestep to normal
timestep        2.0

fix             nvt all nvt temp 423.15 423.15 100.0
run             15000
Generated 0 of 1 mixed pair_coeff terms from geometric mixing rule
Per MPI rank memory allocation (min/avg/max) = 38.39 | 38.39 | 38.39 Mbytes
   Step          Temp          PotEng         KinEng         TotEng         Press          Volume        Density          CPU      
      5000   425.63796     -500192.9       25373.65      -474819.25      34789.368      402592.25      6.2796667      0            
      6000   416.25409     -499808.28      24814.247     -474994.04      34939.288      402592.25      6.2796667      4.1620528    
      7000   422.81298     -499946.53      25205.243     -474741.28      35002.618      402592.25      6.2796667      8.3169495    
      8000   423.29227     -500115.26      25233.815     -474881.45      34902.279      402592.25      6.2796667      12.475869    
      9000   424.70277     -500081.03      25317.9       -474763.13      34900.458      402592.25      6.2796667      16.628015    
     10000   430.87565     -499862.35      25685.885     -474176.46      35137.109      402592.25      6.2796667      20.786854    
     11000   423.61904     -499827.62      25253.295     -474574.32      35066.457      402592.25      6.2796667      24.939738    
     12000   421.8695      -500075.17      25148.999     -474926.17      34876.633      402592.25      6.2796667      29.105106    
     13000   422.07837     -500188.55      25161.451     -475027.1       34904.496      402592.25      6.2796667      33.262917    
     14000   423.40269     -499781.3       25240.398     -474540.9       35131.507      402592.25      6.2796667      37.419899    
     15000   423.1187      -499777.61      25223.468     -474554.14      35135.231      402592.25      6.2796667      41.576282    
     16000   423.4066      -499991.45      25240.631     -474750.82      34798.189      402592.25      6.2796667      45.729133    
     17000   425.83637     -500059.17      25385.477     -474673.69      34832.914      402592.25      6.2796667      49.887064    
     18000   423.91983     -499700.89      25271.226     -474429.67      34990.32       402592.25      6.2796667      54.038897    
     19000   425.42568     -500295.68      25360.995     -474934.68      34764.724      402592.25      6.2796667      58.206185    
     20000   422.98902     -500119.63      25215.738     -474903.9       34902.105      402592.25      6.2796667      62.360319    
Loop time of 62.3603 on 1 procs for 15000 steps with 20000 atoms

Performance: 41.565 ns/day, 0.577 hours/ns, 240.538 timesteps/s, 4.811 Matom-step/s
100.0% CPU use with 1 MPI tasks x 1 OpenMP threads

MPI task timing breakdown:
Section |  min time  |  avg time  |  max time  |%varavg| %total
---------------------------------------------------------------
Pair    | 7.5781     | 7.5781     | 7.5781     |   0.0 | 12.15
Neigh   | 0.468      | 0.468      | 0.468      |   0.0 |  0.75
Comm    | 0.37956    | 0.37956    | 0.37956    |   0.0 |  0.61
Output  | 0.0056682  | 0.0056682  | 0.0056682  |   0.0 |  0.01
Modify  | 53.325     | 53.325     | 53.325     |   0.0 | 85.51
Other   |            | 0.6037     |            |       |  0.97

Nlocal:          20000 ave       20000 max       20000 min
Histogram: 1 0 0 0 0 0 0 0 0 0
Nghost:          32437 ave       32437 max       32437 min
Histogram: 1 0 0 0 0 0 0 0 0 0
Neighs:    6.85496e+06 ave 6.85496e+06 max 6.85496e+06 min
Histogram: 1 0 0 0 0 0 0 0 0 0
FullNghs:  1.14183e+07 ave 1.14183e+07 max 1.14183e+07 min
Histogram: 1 0 0 0 0 0 0 0 0 0

Total # of neighbors = 11418304
Ave neighs/atom = 570.9152
Neighbor list builds = 292
Dangerous builds = 0
unfix           nvt

# ========== Production (NVT) ==========
print "========== H100 GPU Production run =========="
========== H100 GPU Production run ==========

fix             nvt all nvt temp 423.15 423.15 100.0

# Reset RDF for production run
uncompute       myrdf
compute         myrdf all rdf 200 1 1 1 2 2 2 cutoff 12.0
unfix           rdfout
fix             rdfout all ave/time 100 10 1000 c_myrdf[*] file rdf.dat mode vector

run             50000
Generated 0 of 1 mixed pair_coeff terms from geometric mixing rule
Neighbor list info ...
  update: every = 1 steps, delay = 0 steps, check = yes
  max neighbors/atom: 2000, page size: 100000
  master list distance cutoff = 14
  ghost atom cutoff = 14
  binsize = 4, bins = 19 19 19
  3 neighbor lists, perpetual/occasional/extra = 2 1 0
  (1) pair lj/cut, perpetual
      attributes: full, newton off, kokkos_device
      pair build: full/bin/kk/device
      stencil: full/bin/3d
      bin: kk/device
  (2) pair table, perpetual, copy from (1)
      attributes: full, newton off, kokkos_device
      pair build: copy/kk/device
      stencil: none
      bin: none
  (3) compute rdf, occasional
      attributes: half, newton off
      pair build: half/bin/atomonly/newtoff
      stencil: full/bin/3d
      bin: standard
Per MPI rank memory allocation (min/avg/max) = 12.06 | 12.06 | 12.06 Mbytes
   Step          Temp          PotEng         KinEng         TotEng         Press          Volume        Density          CPU      
     20000   422.98902     -500119.63      25215.738     -474903.9       34902.105      402592.25      6.2796667      0            
     21000   426.59497     -499886.91      25430.7       -474456.21      35012.589      402592.25      6.2796667      4.1930279    
     22000   427.16486     -499881.49      25464.673     -474416.82      35089.119      402592.25      6.2796667      8.3765251    
     23000   421.80745     -499789.12      25145.3       -474643.82      35100.792      402592.25      6.2796667      12.556882    
     24000   424.94287     -499878.4       25332.213     -474546.19      35007.994      402592.25      6.2796667      16.733007    
     25000   418.44083     -500182.08      24944.605     -475237.47      34766.494      402592.25      6.2796667      20.919202    
     26000   425.31447     -499844.9       25354.365     -474490.54      35157.274      402592.25      6.2796667      25.093542    
     27000   429.29499     -499984.57      25591.657     -474392.91      35008.138      402592.25      6.2796667      29.271746    
     28000   421.33218     -500063.27      25116.968     -474946.3       34827.409      402592.25      6.2796667      33.458382    
     29000   418.99784     -500016.57      24977.811     -475038.76      34875.287      402592.25      6.2796667      37.639871    
     30000   424.22024     -499866.61      25289.135     -474577.47      35159.361      402592.25      6.2796667      41.824488    
     31000   419.3532      -500079.46      24998.995     -475080.46      34936.28       402592.25      6.2796667      46.003335    
     32000   425.10201     -499876.13      25341.7       -474534.43      35053.169      402592.25      6.2796667      50.19382     
     33000   418.69724     -499892.66      24959.891     -474932.77      34987.686      402592.25      6.2796667      54.378684    
     34000   422.90036     -499886.57      25210.453     -474676.12      35031.748      402592.25      6.2796667      58.558427    
     35000   422.3114      -499758.73      25175.343     -474583.39      35050.19       402592.25      6.2796667      62.739857    
     36000   425.26813     -499763.49      25351.602     -474411.89      35045.279      402592.25      6.2796667      66.924927    
     37000   424.44139     -500026.43      25302.318     -474724.11      34957.211      402592.25      6.2796667      71.10422     
     38000   425.86478     -499816.5       25387.171     -474429.33      35128.778      402592.25      6.2796667      75.289408    
     39000   429.76838     -499520.67      25619.877     -473900.79      35148.182      402592.25      6.2796667      79.465355    
     40000   420.03976     -499740.89      25039.923     -474700.97      35081.808      402592.25      6.2796667      83.650534    
     41000   426.19106     -499692.92      25406.621     -474286.3       35083.653      402592.25      6.2796667      87.840837    
     42000   423.45236     -499614.18      25243.359     -474370.82      35233.978      402592.25      6.2796667      92.023947    
     43000   424.23035     -500133.39      25289.737     -474843.65      34860.553      402592.25      6.2796667      96.20077     
     44000   418.42998     -499824.89      24943.959     -474880.93      34925.616      402592.25      6.2796667      100.38245    
     45000   419.69547     -499995.05      25019.399     -474975.65      34940.738      402592.25      6.2796667      104.56593    
     46000   427.32884     -499769.15      25474.448     -474294.7       35072.953      402592.25      6.2796667      108.73933    
     47000   423.05057     -499882.86      25219.407     -474663.45      34864.707      402592.25      6.2796667      112.92527    
     48000   422.83583     -499872.52      25206.605     -474665.91      34917.942      402592.25      6.2796667      117.1067     
     49000   425.0237      -499689.52      25337.031     -474352.48      35154.342      402592.25      6.2796667      121.28673    
     50000   426.05285     -499983.25      25398.382     -474584.87      34909.983      402592.25      6.2796667      125.46919    
     51000   422.27977     -499895.59      25173.457     -474722.13      35017.866      402592.25      6.2796667      129.64538    
     52000   432.74375     -500092.07      25797.248     -474294.82      34898.14       402592.25      6.2796667      133.83705    
     53000   420.97335     -500024.56      25095.577     -474928.98      34892.711      402592.25      6.2796667      138.02059    
     54000   418.92156     -499895.43      24973.263     -474922.17      34963.538      402592.25      6.2796667      142.20275    
     55000   425.85083     -499742.29      25386.339     -474355.95      35152.989      402592.25      6.2796667      146.38551    
     56000   420.83535     -499758.46      25087.35      -474671.11      34941.708      402592.25      6.2796667      150.57096    
     57000   422.00351     -499647.61      25156.988     -474490.62      35039.222      402592.25      6.2796667      154.7533     
     58000   422.98897     -499985.09      25215.735     -474769.35      34891.93       402592.25      6.2796667      158.92845    
     59000   423.78141     -499799.29      25262.974     -474536.31      35065.323      402592.25      6.2796667      163.12331    
     60000   423.82123     -499689.22      25265.348     -474423.88      35088.136      402592.25      6.2796667      167.30325    
     61000   423.75581     -500012.89      25261.448     -474751.44      35003.97       402592.25      6.2796667      171.49036    
     62000   421.09852     -499852.1       25103.039     -474749.06      34903.332      402592.25      6.2796667      175.67794    
     63000   420.02101     -500252.01      25038.805     -475213.2       34810.018      402592.25      6.2796667      179.86695    
     64000   423.80765     -500205.23      25264.539     -474940.69      34726.044      402592.25      6.2796667      184.06333    
     65000   427.77896     -499985.74      25501.281     -474484.46      34977.252      402592.25      6.2796667      188.24652    
     66000   427.01967     -500195.87      25456.018     -474739.86      34991.044      402592.25      6.2796667      192.4365     
     67000   424.45329     -499991.89      25303.027     -474688.87      34952.634      402592.25      6.2796667      196.62347    
     68000   419.059       -500215.81      24981.456     -475234.36      34761.141      402592.25      6.2796667      200.81989    
     69000   420.20428     -499990.99      25049.73      -474941.26      34934.251      402592.25      6.2796667      204.99788    
     70000   421.89969     -500027.1       25150.799     -474876.3       34869.866      402592.25      6.2796667      209.17131    
Loop time of 209.171 on 1 procs for 50000 steps with 20000 atoms

Performance: 41.306 ns/day, 0.581 hours/ns, 239.038 timesteps/s, 4.781 Matom-step/s
100.0% CPU use with 1 MPI tasks x 1 OpenMP threads

MPI task timing breakdown:
Section |  min time  |  avg time  |  max time  |%varavg| %total
---------------------------------------------------------------
Pair    | 25.246     | 25.246     | 25.246     |   0.0 | 12.07
Neigh   | 1.5674     | 1.5674     | 1.5674     |   0.0 |  0.75
Comm    | 1.2606     | 1.2606     | 1.2606     |   0.0 |  0.60
Output  | 0.018204   | 0.018204   | 0.018204   |   0.0 |  0.01
Modify  | 179.06     | 179.06     | 179.06     |   0.0 | 85.61
Other   |            | 2.014      |            |       |  0.96

Nlocal:          20000 ave       20000 max       20000 min
Histogram: 1 0 0 0 0 0 0 0 0 0
Nghost:          32391 ave       32391 max       32391 min
Histogram: 1 0 0 0 0 0 0 0 0 0
Neighs:    6.84922e+06 ave 6.84922e+06 max 6.84922e+06 min
Histogram: 1 0 0 0 0 0 0 0 0 0
FullNghs:  1.14173e+07 ave 1.14173e+07 max 1.14173e+07 min
Histogram: 1 0 0 0 0 0 0 0 0 0

Total # of neighbors = 11417340
Ave neighs/atom = 570.867
Neighbor list builds = 976
Dangerous builds = 0
unfix           nvt

# ========== Finalize ==========
print "========== H100 GPU Simulation completed =========="
========== H100 GPU Simulation completed ==========

# Write restart file for next iteration (use fixed name to avoid shell command issues)
write_restart   outputs/restart.0.data
System init for write_restart ...
Generated 0 of 1 mixed pair_coeff terms from geometric mixing rule

# Final statistics
variable        density_final equal density
variable        temp_final equal temp
variable        press_final equal press

print "========================================="
=========================================
print "FINAL RESULTS:"
FINAL RESULTS:
print "  Density:     ${density_final} g/cm^3"
  Density:     6.27966666056993 g/cm^3
print "  Temperature: ${temp_final} K"
  Temperature: 421.89969108944 K
print "  Pressure:    ${press_final} bar"
  Pressure:    34869.8662155434 bar
print "========================================="
=========================================

print "RDF written to rdf.dat"
RDF written to rdf.dat
print "Restart file written to outputs/restart.0.data"
Restart file written to outputs/restart.0.data
Total wall time: 0:04:47
