LAMMPS (22 Jul 2025 - Update 2)
KOKKOS mode with Kokkos version 4.6.2 is enabled
  will use up to 1 GPU(s) per node
  using 1 OpenMP thread(s) per MPI task
package kokkos
# H100 GPU-Optimized LAMMPS input for EPSR simulation of EGaIn eutectic alloy
# Composition: Ga0.858In0.142
# Temperature: 150Â°C (423.15 K)
# Potential: LJ + Empirical Potential (table)
# GPU: Using KOKKOS for H100 (Hopper architecture)

# ========== KOKKOS Initialization (CRITICAL: Must be first) ==========
# CRITICAL FIX: newton off prevents KOKKOS errors on H100
# Note: pair_style table does not have /kk support, but will run on CPU while LJ runs on GPU
package         kokkos neigh full newton off

# ========== Initialization ==========
units           real
atom_style      atomic
boundary        p p p

# ========== Force field ==========
# Use hybrid/overlay to combine LJ (GPU-accelerated) and table (CPU)
# The -sf kk flag will automatically use lj/cut/kk while table runs on CPU
# NOTE: pair_style must be defined BEFORE read_data if data file contains Pair Coeffs section
pair_style      hybrid/overlay lj/cut 12.0 table linear 200

# ========== Read structure ==========
# Use LJ-equilibrated structure as initial configuration (more stable)
shell           mkdir -p outputs
# nocoeff skips Pair Coeffs section which is incompatible with hybrid/overlay
read_data       outputs/final_structure_lj_H100.data nocoeff
Reading data file ...
  orthogonal box = (0 0 0) to (73.839453 73.839453 73.839453)
  1 by 1 by 1 MPI processor grid
WARNING: Pair style lj/cut/kk in data file differs from currently defined pair style zero (src/read_data.cpp:811)
  reading atoms ...
  20000 atoms
  reading velocities ...
  20000 velocities
  read_data CPU = 0.096 seconds

# LJ potential (GPU-accelerated with -sf kk flag)
pair_coeff      1 1 lj/cut 0.430 2.70    # Ga-Ga
pair_coeff      2 2 lj/cut 0.430 3.11    # In-In
pair_coeff      1 2 lj/cut 0.430 2.905   # Ga-In

# Empirical potential (from table files - runs on CPU)
# Table format: r, U(r), F(r)
pair_coeff      1 1 table data/ep_GaGa.table EP_GAGA 12.0
pair_coeff      2 2 table data/ep_InIn.table EP_ININ 12.0
pair_coeff      1 2 table data/ep_GaIn.table EP_GAIN 12.0

# ========== Settings ==========
mass            1 69.723    # Ga
mass            2 114.818   # In

# Optimized neighbor list for GPU
neighbor        2.0 bin
neigh_modify    delay 0 every 1 check yes binsize 4.0

# ========== Initial velocity ==========
# Re-initialize velocities for this temperature
velocity        all create 423.15 12345 dist gaussian

# ========== Thermodynamic output ==========
thermo          1000
thermo_style    custom step temp pe ke etotal press vol density cpu

# ========== Quick minimization for stability ==========
print "========== Energy Minimization =========="
========== Energy Minimization ==========
minimize        1.0e-4 1.0e-6 1000 10000
Generated 0 of 1 mixed pair_coeff terms from geometric mixing rule
Neighbor list info ...
  update: every = 1 steps, delay = 0 steps, check = yes
  max neighbors/atom: 2000, page size: 100000
  master list distance cutoff = 14
  ghost atom cutoff = 14
  binsize = 4, bins = 19 19 19
  2 neighbor lists, perpetual/occasional/extra = 2 0 0
  (1) pair lj/cut, perpetual
      attributes: full, newton off, kokkos_device
      pair build: full/bin/kk/device
      stencil: full/bin/3d
      bin: kk/device
  (2) pair table, perpetual, copy from (1)
      attributes: full, newton off, kokkos_device
      pair build: copy/kk/device
      stencil: none
      bin: none
WARNING: Fix MINIMIZE/kk not compatible with sending data in Kokkos communication (src/KOKKOS/comm_kokkos.cpp:767)
WARNING: Fix with atom-based arrays not compatible with sending data in Kokkos communication, switching to classic exchange/border communication (src/KOKKOS/comm_kokkos.cpp:780)
WARNING: Fix MINIMIZE/kk not compatible with Kokkos sorting on device (src/KOKKOS/atom_kokkos.cpp:212)
WARNING: Fix with atom-based arrays not compatible with Kokkos sorting on device, switching to classic host sorting (src/KOKKOS/atom_kokkos.cpp:218)
Per MPI rank memory allocation (min/avg/max) = 13.71 | 13.71 | 13.71 Mbytes
   Step          Temp          PotEng         KinEng         TotEng         Press          Volume        Density          CPU      
         0   423.15        -41656.468      25225.334     -16431.134      26889.529      402592.25      6.2796667      0            
       126   423.15        -65387.835      25225.334     -40162.501      6464.7677      402592.25      6.2796667      0.19402799   
Loop time of 0.194034 on 1 procs for 126 steps with 20000 atoms

99.1% CPU use with 1 MPI tasks x 1 OpenMP threads

Minimization stats:
  Stopping criterion = energy tolerance
  Energy initial, next-to-last, final = 
     -41656.4679952413  -65381.6698919904  -65387.8353565328
  Force two-norm initial, final = 1548.8099 16.981422
  Force max component initial, final = 43.183702 3.7441757
  Final line search alpha, max atom move = 0.024756973 0.092694455
  Iterations, force evaluations = 126 129

MPI task timing breakdown:
Section |  min time  |  avg time  |  max time  |%varavg| %total
---------------------------------------------------------------
Pair    | 0.15802    | 0.15802    | 0.15802    |   0.0 | 81.44
Neigh   | 0.0073441  | 0.0073441  | 0.0073441  |   0.0 |  3.78
Comm    | 0.0077545  | 0.0077545  | 0.0077545  |   0.0 |  4.00
Output  | 0          | 0          | 0          |   0.0 |  0.00
Modify  | 0          | 0          | 0          |   0.0 |  0.00
Other   |            | 0.02092    |            |       | 10.78

Nlocal:          20000 ave       20000 max       20000 min
Histogram: 1 0 0 0 0 0 0 0 0 0
Nghost:          32421 ave       32421 max       32421 min
Histogram: 1 0 0 0 0 0 0 0 0 0
Neighs:              0 ave           0 max           0 min
Histogram: 1 0 0 0 0 0 0 0 0 0
FullNghs:   1.1392e+07 ave  1.1392e+07 max  1.1392e+07 min
Histogram: 1 0 0 0 0 0 0 0 0 0

Total # of neighbors = 11391982
Ave neighs/atom = 569.5991
Neighbor list builds = 6
Dangerous builds = 0
reset_timestep  0

# ========== RDF computation ==========
# Compute total and partial pair distribution functions
compute         myrdf all rdf 200 1 1 1 2 2 2 cutoff 12.0

# Time-average RDF output
fix             rdfout all ave/time 100 10 1000 c_myrdf[*] file rdf.dat mode vector

# ========== Equilibration (NVT) ==========
print "========== H100 GPU Equilibration =========="
========== H100 GPU Equilibration ==========

# Start with small timestep for stability
timestep        0.5

fix             nvt all nvt temp 423.15 423.15 100.0
run             5000
Generated 0 of 1 mixed pair_coeff terms from geometric mixing rule
Neighbor list info ...
  update: every = 1 steps, delay = 0 steps, check = yes
  max neighbors/atom: 2000, page size: 100000
  master list distance cutoff = 14
  ghost atom cutoff = 14
  binsize = 4, bins = 19 19 19
  3 neighbor lists, perpetual/occasional/extra = 2 1 0
  (1) pair lj/cut, perpetual
      attributes: full, newton off, kokkos_device
      pair build: full/bin/kk/device
      stencil: full/bin/3d
      bin: kk/device
  (2) pair table, perpetual, copy from (1)
      attributes: full, newton off, kokkos_device
      pair build: copy/kk/device
      stencil: none
      bin: none
  (3) compute rdf, occasional
      attributes: half, newton off
      pair build: half/bin/atomonly/newtoff
      stencil: full/bin/3d
      bin: standard
Per MPI rank memory allocation (min/avg/max) = 12.06 | 12.06 | 12.06 Mbytes
   Step          Temp          PotEng         KinEng         TotEng         Press          Volume        Density          CPU      
         0   423.15        -65387.835      25225.334     -40162.501      6464.7677      402592.25      6.2796667      0            
      1000   323.46997     -48268.898      19283.086     -28985.811      20601.535      402592.25      6.2796667      2.8956119    
      2000   431.50598     -42228.501      25723.461     -16505.04       26447.068      402592.25      6.2796667      5.9965158    
      3000   424.04686     -42372.945      25278.799     -17094.147      26294.085      402592.25      6.2796667      9.0991609    
      4000   423.11417     -42229.574      25223.198     -17006.376      26431.188      402592.25      6.2796667      12.187934    
      5000   421.27277     -41938.47       25113.427     -16825.043      26654.548      402592.25      6.2796667      15.285465    
Loop time of 15.2855 on 1 procs for 5000 steps with 20000 atoms

Performance: 14.131 ns/day, 1.698 hours/ns, 327.108 timesteps/s, 6.542 Matom-step/s
99.9% CPU use with 1 MPI tasks x 1 OpenMP threads

MPI task timing breakdown:
Section |  min time  |  avg time  |  max time  |%varavg| %total
---------------------------------------------------------------
Pair    | 2.5026     | 2.5026     | 2.5026     |   0.0 | 16.37
Neigh   | 0.037594   | 0.037594   | 0.037594   |   0.0 |  0.25
Comm    | 0.051251   | 0.051251   | 0.051251   |   0.0 |  0.34
Output  | 0.0017113  | 0.0017113  | 0.0017113  |   0.0 |  0.01
Modify  | 12.514     | 12.514     | 12.514     |   0.0 | 81.87
Other   |            | 0.1781     |            |       |  1.17

Nlocal:          20000 ave       20000 max       20000 min
Histogram: 1 0 0 0 0 0 0 0 0 0
Nghost:          32460 ave       32460 max       32460 min
Histogram: 1 0 0 0 0 0 0 0 0 0
Neighs:    6.83985e+06 ave 6.83985e+06 max 6.83985e+06 min
Histogram: 1 0 0 0 0 0 0 0 0 0
FullNghs:  1.13995e+07 ave 1.13995e+07 max 1.13995e+07 min
Histogram: 1 0 0 0 0 0 0 0 0 0

Total # of neighbors = 11399540
Ave neighs/atom = 569.977
Neighbor list builds = 23
Dangerous builds = 0
unfix           nvt

# Increase timestep to normal
timestep        2.0

fix             nvt all nvt temp 423.15 423.15 100.0
run             15000
Generated 0 of 1 mixed pair_coeff terms from geometric mixing rule
Per MPI rank memory allocation (min/avg/max) = 38.39 | 38.39 | 38.39 Mbytes
   Step          Temp          PotEng         KinEng         TotEng         Press          Volume        Density          CPU      
      5000   421.27277     -41938.47       25113.427     -16825.043      26654.548      402592.25      6.2796667      0            
      6000   424.69208     -41966.609      25317.263     -16649.346      26665.364      402592.25      6.2796667      4.1603265    
      7000   419.98659     -41834.129      25036.753     -16797.376      26736.828      402592.25      6.2796667      8.3251932    
      8000   422.97407     -41855.366      25214.847     -16640.519      26744.552      402592.25      6.2796667      12.489851    
      9000   424.13505     -41687.623      25284.056     -16403.567      26870.339      402592.25      6.2796667      16.661871    
     10000   419.29258     -41748.537      24995.381     -16753.156      26801.013      402592.25      6.2796667      20.842136    
     11000   418.08726     -41490.824      24923.528     -16567.296      27018.463      402592.25      6.2796667      25.012752    
     12000   421.58141     -41785.09       25131.826     -16653.264      26758.56       402592.25      6.2796667      29.171178    
     13000   420.74567     -41463.517      25082.004     -16381.513      27042.969      402592.25      6.2796667      33.335806    
     14000   421.26735     -41902.804      25113.103     -16789.701      26683.187      402592.25      6.2796667      37.507909    
     15000   424.10763     -41514.666      25282.421     -16232.244      27002.958      402592.25      6.2796667      41.693541    
     16000   419.76829     -41988.901      25023.74      -16965.162      26597.768      402592.25      6.2796667      45.865235    
     17000   418.24385     -41773.748      24932.863     -16840.885      26761.405      402592.25      6.2796667      50.040058    
     18000   422.7195      -41799.591      25199.671     -16599.921      26779.31       402592.25      6.2796667      54.213194    
     19000   426.28553     -42021.589      25412.253     -16609.335      26613.282      402592.25      6.2796667      58.373376    
     20000   420.69416     -41738.532      25078.934     -16659.599      26810.362      402592.25      6.2796667      62.541254    
Loop time of 62.5413 on 1 procs for 15000 steps with 20000 atoms

Performance: 41.445 ns/day, 0.579 hours/ns, 239.842 timesteps/s, 4.797 Matom-step/s
100.0% CPU use with 1 MPI tasks x 1 OpenMP threads

MPI task timing breakdown:
Section |  min time  |  avg time  |  max time  |%varavg| %total
---------------------------------------------------------------
Pair    | 7.5469     | 7.5469     | 7.5469     |   0.0 | 12.07
Neigh   | 0.46276    | 0.46276    | 0.46276    |   0.0 |  0.74
Comm    | 0.3691     | 0.3691     | 0.3691     |   0.0 |  0.59
Output  | 0.0052408  | 0.0052408  | 0.0052408  |   0.0 |  0.01
Modify  | 53.522     | 53.522     | 53.522     |   0.0 | 85.58
Other   |            | 0.6352     |            |       |  1.02

Nlocal:          20000 ave       20000 max       20000 min
Histogram: 1 0 0 0 0 0 0 0 0 0
Nghost:          32463 ave       32463 max       32463 min
Histogram: 1 0 0 0 0 0 0 0 0 0
Neighs:    6.84334e+06 ave 6.84334e+06 max 6.84334e+06 min
Histogram: 1 0 0 0 0 0 0 0 0 0
FullNghs:   1.1399e+07 ave  1.1399e+07 max  1.1399e+07 min
Histogram: 1 0 0 0 0 0 0 0 0 0

Total # of neighbors = 11399034
Ave neighs/atom = 569.9517
Neighbor list builds = 289
Dangerous builds = 0
unfix           nvt

# ========== Production (NVT) ==========
print "========== H100 GPU Production run =========="
========== H100 GPU Production run ==========

fix             nvt all nvt temp 423.15 423.15 100.0

# Reset RDF for production run
uncompute       myrdf
compute         myrdf all rdf 200 1 1 1 2 2 2 cutoff 12.0
unfix           rdfout
fix             rdfout all ave/time 100 10 1000 c_myrdf[*] file rdf.dat mode vector

run             50000
Generated 0 of 1 mixed pair_coeff terms from geometric mixing rule
Neighbor list info ...
  update: every = 1 steps, delay = 0 steps, check = yes
  max neighbors/atom: 2000, page size: 100000
  master list distance cutoff = 14
  ghost atom cutoff = 14
  binsize = 4, bins = 19 19 19
  3 neighbor lists, perpetual/occasional/extra = 2 1 0
  (1) pair lj/cut, perpetual
      attributes: full, newton off, kokkos_device
      pair build: full/bin/kk/device
      stencil: full/bin/3d
      bin: kk/device
  (2) pair table, perpetual, copy from (1)
      attributes: full, newton off, kokkos_device
      pair build: copy/kk/device
      stencil: none
      bin: none
  (3) compute rdf, occasional
      attributes: half, newton off
      pair build: half/bin/atomonly/newtoff
      stencil: full/bin/3d
      bin: standard
Per MPI rank memory allocation (min/avg/max) = 12.06 | 12.06 | 12.06 Mbytes
   Step          Temp          PotEng         KinEng         TotEng         Press          Volume        Density          CPU      
     20000   420.69416     -41738.532      25078.934     -16659.599      26810.362      402592.25      6.2796667      0            
     21000   422.05788     -41823.708      25160.229     -16663.479      26747.386      402592.25      6.2796667      4.1644026    
     22000   421.76242     -41767.456      25142.616     -16624.84       26794.846      402592.25      6.2796667      8.3353971    
     23000   423.34108     -41989.835      25236.725     -16753.11       26629.012      402592.25      6.2796667      12.494554    
     24000   420.31726     -42030.907      25056.466     -16974.441      26532.344      402592.25      6.2796667      16.657485    
     25000   425.44822     -41516.157      25362.338     -16153.819      27027.407      402592.25      6.2796667      20.843604    
     26000   420.18991     -41951.309      25048.873     -16902.436      26620.131      402592.25      6.2796667      25.015839    
     27000   422.79457     -41931.889      25204.146     -16727.743      26650.826      402592.25      6.2796667      29.180735    
     28000   422.7105      -41779.716      25199.134     -16580.582      26805.905      402592.25      6.2796667      33.346857    
     29000   422.43548     -41753.764      25182.739     -16571.025      26829.225      402592.25      6.2796667      37.504976    
     30000   421.29963     -41905.6        25115.027     -16790.572      26664.82       402592.25      6.2796667      41.67428     
     31000   422.76019     -41502          25202.096     -16299.904      27019.324      402592.25      6.2796667      45.83608     
     32000   426.67056     -41855.271      25435.206     -16420.064      26748.433      402592.25      6.2796667      49.984057    
     33000   423.13747     -41740.538      25224.587     -16515.951      26812.935      402592.25      6.2796667      54.15783     
     34000   424.51279     -41648.832      25306.575     -16342.257      26906.759      402592.25      6.2796667      58.339663    
     35000   423.62077     -41859.751      25253.398     -16606.353      26727.376      402592.25      6.2796667      62.513841    
     36000   427.16744     -41659.965      25464.826     -16195.138      26909.357      402592.25      6.2796667      66.685993    
     37000   427.36264     -41872.287      25476.463     -16395.824      26743.746      402592.25      6.2796667      70.857018    
     38000   425.46334     -41946.506      25363.24      -16583.266      26675.174      402592.25      6.2796667      75.033076    
     39000   419.67629     -41647.965      25018.255     -16629.71       26876.322      402592.25      6.2796667      79.206563    
     40000   424.59562     -41810.917      25311.512     -16499.405      26783.229      402592.25      6.2796667      83.372009    
     41000   418.96634     -41990.644      24975.933     -17014.711      26613.291      402592.25      6.2796667      87.535425    
     42000   426.87327     -41617.97       25447.29      -16170.679      26947.838      402592.25      6.2796667      91.700974    
     43000   423.44478     -41771.755      25242.907     -16528.848      26808.8        402592.25      6.2796667      95.867424    
     44000   421.11131     -41621.569      25103.801     -16517.768      26917.839      402592.25      6.2796667      100.02778    
     45000   427.69836     -41671.259      25496.476     -16174.783      26920.325      402592.25      6.2796667      104.19902    
     46000   426.93898     -41591.813      25451.208     -16140.606      26984.71       402592.25      6.2796667      108.37428    
     47000   422.90828     -41719.355      25210.924     -16508.431      26854.8        402592.25      6.2796667      112.5411     
     48000   422.20192     -41607.771      25168.816     -16438.955      26942.75       402592.25      6.2796667      116.70998    
     49000   419.26508     -41889.913      24993.741     -16896.171      26704.631      402592.25      6.2796667      120.88373    
     50000   424.26588     -41674.771      25291.856     -16382.916      26901.625      402592.25      6.2796667      125.05297    
     51000   422.63892     -41857.259      25194.867     -16662.392      26718.046      402592.25      6.2796667      129.22557    
     52000   428.39295     -41852.147      25537.883     -16314.264      26762.644      402592.25      6.2796667      133.39133    
     53000   421.11456     -41917.367      25103.995     -16813.372      26672.424      402592.25      6.2796667      137.55403    
     54000   423.21695     -41957.284      25229.325     -16727.959      26653.156      402592.25      6.2796667      141.70786    
     55000   422.32841     -41752.85       25176.357     -16576.493      26821.165      402592.25      6.2796667      145.87749    
     56000   424.03595     -41652.083      25278.148     -16373.934      26914.272      402592.25      6.2796667      150.05433    
     57000   429.55578     -41742.936      25607.203     -16135.733      26873.949      402592.25      6.2796667      154.22059    
     58000   422.68654     -41704.837      25197.706     -16507.131      26857.326      402592.25      6.2796667      158.3911     
     59000   421.31827     -41796.887      25116.139     -16680.748      26786.329      402592.25      6.2796667      162.5716     
     60000   420.06084     -41695.814      25041.179     -16654.634      26850.992      402592.25      6.2796667      166.75708    
     61000   428.31692     -41889.304      25533.351     -16355.953      26757.107      402592.25      6.2796667      170.92934    
     62000   423.91147     -41789.816      25270.728     -16519.088      26804.299      402592.25      6.2796667      175.10325    
     63000   426.68211     -41391.627      25435.894     -15955.733      27152.866      402592.25      6.2796667      179.28199    
     64000   424.14401     -41857.282      25284.59      -16572.691      26726.383      402592.25      6.2796667      183.44598    
     65000   426.50314     -41874.428      25425.225     -16449.202      26724.801      402592.25      6.2796667      187.61764    
     66000   422.01486     -41750.086      25157.665     -16592.421      26810.666      402592.25      6.2796667      191.79976    
     67000   420.23703     -41568.943      25051.682     -16517.261      26958.332      402592.25      6.2796667      195.96377    
     68000   425.52737     -41677.611      25367.057     -16310.554      26915.384      402592.25      6.2796667      200.15159    
     69000   422.99625     -41891.097      25216.169     -16674.929      26691.459      402592.25      6.2796667      204.32325    
     70000   425.42533     -41952.978      25360.974     -16592.004      26655.593      402592.25      6.2796667      208.48902    
Loop time of 208.489 on 1 procs for 50000 steps with 20000 atoms

Performance: 41.441 ns/day, 0.579 hours/ns, 239.821 timesteps/s, 4.796 Matom-step/s
100.0% CPU use with 1 MPI tasks x 1 OpenMP threads

MPI task timing breakdown:
Section |  min time  |  avg time  |  max time  |%varavg| %total
---------------------------------------------------------------
Pair    | 25.204     | 25.204     | 25.204     |   0.0 | 12.09
Neigh   | 1.5552     | 1.5552     | 1.5552     |   0.0 |  0.75
Comm    | 1.2497     | 1.2497     | 1.2497     |   0.0 |  0.60
Output  | 0.017683   | 0.017683   | 0.017683   |   0.0 |  0.01
Modify  | 178.38     | 178.38     | 178.38     |   0.0 | 85.56
Other   |            | 2.084      |            |       |  1.00

Nlocal:          20000 ave       20000 max       20000 min
Histogram: 1 0 0 0 0 0 0 0 0 0
Nghost:          32292 ave       32292 max       32292 min
Histogram: 1 0 0 0 0 0 0 0 0 0
Neighs:     6.8419e+06 ave  6.8419e+06 max  6.8419e+06 min
Histogram: 1 0 0 0 0 0 0 0 0 0
FullNghs:  1.14001e+07 ave 1.14001e+07 max 1.14001e+07 min
Histogram: 1 0 0 0 0 0 0 0 0 0

Total # of neighbors = 11400122
Ave neighs/atom = 570.0061
Neighbor list builds = 977
Dangerous builds = 0
unfix           nvt

# ========== Finalize ==========
print "========== H100 GPU Simulation completed =========="
========== H100 GPU Simulation completed ==========

# Write restart file for next iteration (use fixed name to avoid shell command issues)
write_restart   outputs/restart.0.data
System init for write_restart ...
Generated 0 of 1 mixed pair_coeff terms from geometric mixing rule

# Final statistics
variable        density_final equal density
variable        temp_final equal temp
variable        press_final equal press

print "========================================="
=========================================
print "FINAL RESULTS:"
FINAL RESULTS:
print "  Density:     ${density_final} g/cm^3"
  Density:     6.27966666056994 g/cm^3
print "  Temperature: ${temp_final} K"
  Temperature: 425.425331585731 K
print "  Pressure:    ${press_final} bar"
  Pressure:    26655.5931496059 bar
print "========================================="
=========================================

print "RDF written to rdf.dat"
RDF written to rdf.dat
print "Restart file written to outputs/restart.0.data"
Restart file written to outputs/restart.0.data
Total wall time: 0:04:47
