LAMMPS (22 Jul 2025 - Update 2)
KOKKOS mode with Kokkos version 4.6.2 is enabled
  will use up to 1 GPU(s) per node
  using 1 OpenMP thread(s) per MPI task
package kokkos
# H100 GPU-Optimized LAMMPS input for EPSR simulation of EGaIn eutectic alloy
# Composition: Ga0.858In0.142
# Temperature: 150Â°C (423.15 K)
# Potential: LJ + Empirical Potential (table)
# GPU: Using KOKKOS for H100 (Hopper architecture)

# ========== KOKKOS Initialization (CRITICAL: Must be first) ==========
# CRITICAL FIX: newton off prevents KOKKOS errors on H100
# Note: pair_style table does not have /kk support, but will run on CPU while LJ runs on GPU
package         kokkos neigh full newton off

# ========== Initialization ==========
units           real
atom_style      atomic
boundary        p p p

# ========== Force field ==========
# Use hybrid/overlay to combine LJ (GPU-accelerated) and table (CPU)
# The -sf kk flag will automatically use lj/cut/kk while table runs on CPU
# NOTE: pair_style must be defined BEFORE read_data if data file contains Pair Coeffs section
pair_style      hybrid/overlay lj/cut 12.0 table linear 200

# ========== Read structure ==========
# Use LJ-equilibrated structure as initial configuration (more stable)
shell           mkdir -p outputs
# nocoeff skips Pair Coeffs section which is incompatible with hybrid/overlay
read_data       outputs/final_structure_lj_H100.data nocoeff
Reading data file ...
  orthogonal box = (0 0 0) to (73.839453 73.839453 73.839453)
  1 by 1 by 1 MPI processor grid
WARNING: Pair style lj/cut/kk in data file differs from currently defined pair style zero (src/read_data.cpp:811)
  reading atoms ...
  20000 atoms
  reading velocities ...
  20000 velocities
  read_data CPU = 0.098 seconds

# LJ potential (GPU-accelerated with -sf kk flag)
pair_coeff      1 1 lj/cut 0.430 2.70    # Ga-Ga
pair_coeff      2 2 lj/cut 0.430 3.11    # In-In
pair_coeff      1 2 lj/cut 0.430 2.905   # Ga-In

# Empirical potential (from table files - runs on CPU)
# Table format: r, U(r), F(r)
pair_coeff      1 1 table data/ep_GaGa.table EP_GAGA 12.0
pair_coeff      2 2 table data/ep_InIn.table EP_ININ 12.0
pair_coeff      1 2 table data/ep_GaIn.table EP_GAIN 12.0

# ========== Settings ==========
mass            1 69.723    # Ga
mass            2 114.818   # In

# Optimized neighbor list for GPU
neighbor        2.0 bin
neigh_modify    delay 0 every 1 check yes binsize 4.0

# ========== Initial velocity ==========
# Re-initialize velocities for this temperature
velocity        all create 423.15 12345 dist gaussian

# ========== Thermodynamic output ==========
thermo          1000
thermo_style    custom step temp pe ke etotal press vol density cpu

# ========== Quick minimization for stability ==========
print "========== Energy Minimization =========="
========== Energy Minimization ==========
minimize        1.0e-4 1.0e-6 1000 10000
Generated 0 of 1 mixed pair_coeff terms from geometric mixing rule
Neighbor list info ...
  update: every = 1 steps, delay = 0 steps, check = yes
  max neighbors/atom: 2000, page size: 100000
  master list distance cutoff = 14
  ghost atom cutoff = 14
  binsize = 4, bins = 19 19 19
  2 neighbor lists, perpetual/occasional/extra = 2 0 0
  (1) pair lj/cut, perpetual
      attributes: full, newton off, kokkos_device
      pair build: full/bin/kk/device
      stencil: full/bin/3d
      bin: kk/device
  (2) pair table, perpetual, copy from (1)
      attributes: full, newton off, kokkos_device
      pair build: copy/kk/device
      stencil: none
      bin: none
WARNING: Fix MINIMIZE/kk not compatible with sending data in Kokkos communication (src/KOKKOS/comm_kokkos.cpp:767)
WARNING: Fix with atom-based arrays not compatible with sending data in Kokkos communication, switching to classic exchange/border communication (src/KOKKOS/comm_kokkos.cpp:780)
WARNING: Fix MINIMIZE/kk not compatible with Kokkos sorting on device (src/KOKKOS/atom_kokkos.cpp:212)
WARNING: Fix with atom-based arrays not compatible with Kokkos sorting on device, switching to classic host sorting (src/KOKKOS/atom_kokkos.cpp:218)
Per MPI rank memory allocation (min/avg/max) = 13.71 | 13.71 | 13.71 Mbytes
   Step          Temp          PotEng         KinEng         TotEng         Press          Volume        Density          CPU      
         0   423.15        -158460.74      25225.334     -133235.41      60968.885      402592.25      6.2796667      0            
        99   423.15        -184290.75      25225.334     -159065.42      48982.577      402592.25      6.2796667      0.14552781   
Loop time of 0.145535 on 1 procs for 99 steps with 20000 atoms

98.9% CPU use with 1 MPI tasks x 1 OpenMP threads

Minimization stats:
  Stopping criterion = energy tolerance
  Energy initial, next-to-last, final = 
     -158460.741433213  -184276.078758789  -184290.750743203
  Force two-norm initial, final = 1468.2402 31.726477
  Force max component initial, final = 43.28685 2.5731363
  Final line search alpha, max atom move = 0.0083294614 0.02143284
  Iterations, force evaluations = 99 99

MPI task timing breakdown:
Section |  min time  |  avg time  |  max time  |%varavg| %total
---------------------------------------------------------------
Pair    | 0.12039    | 0.12039    | 0.12039    |   0.0 | 82.72
Neigh   | 0.0036949  | 0.0036949  | 0.0036949  |   0.0 |  2.54
Comm    | 0.0050618  | 0.0050618  | 0.0050618  |   0.0 |  3.48
Output  | 0          | 0          | 0          |   0.0 |  0.00
Modify  | 0          | 0          | 0          |   0.0 |  0.00
Other   |            | 0.01639    |            |       | 11.26

Nlocal:          20000 ave       20000 max       20000 min
Histogram: 1 0 0 0 0 0 0 0 0 0
Nghost:          32458 ave       32458 max       32458 min
Histogram: 1 0 0 0 0 0 0 0 0 0
Neighs:              0 ave           0 max           0 min
Histogram: 1 0 0 0 0 0 0 0 0 0
FullNghs:  1.14508e+07 ave 1.14508e+07 max 1.14508e+07 min
Histogram: 1 0 0 0 0 0 0 0 0 0

Total # of neighbors = 11450768
Ave neighs/atom = 572.5384
Neighbor list builds = 3
Dangerous builds = 0
reset_timestep  0

# ========== RDF computation ==========
# Compute total and partial pair distribution functions
compute         myrdf all rdf 200 1 1 1 2 2 2 cutoff 12.0

# Time-average RDF output
fix             rdfout all ave/time 100 10 1000 c_myrdf[*] file rdf.dat mode vector

# ========== Equilibration (NVT) ==========
print "========== H100 GPU Equilibration =========="
========== H100 GPU Equilibration ==========

# Start with small timestep for stability
timestep        0.5

fix             nvt all nvt temp 423.15 423.15 100.0
run             5000
Generated 0 of 1 mixed pair_coeff terms from geometric mixing rule
Neighbor list info ...
  update: every = 1 steps, delay = 0 steps, check = yes
  max neighbors/atom: 2000, page size: 100000
  master list distance cutoff = 14
  ghost atom cutoff = 14
  binsize = 4, bins = 19 19 19
  3 neighbor lists, perpetual/occasional/extra = 2 1 0
  (1) pair lj/cut, perpetual
      attributes: full, newton off, kokkos_device
      pair build: full/bin/kk/device
      stencil: full/bin/3d
      bin: kk/device
  (2) pair table, perpetual, copy from (1)
      attributes: full, newton off, kokkos_device
      pair build: copy/kk/device
      stencil: none
      bin: none
  (3) compute rdf, occasional
      attributes: half, newton off
      pair build: half/bin/atomonly/newtoff
      stencil: full/bin/3d
      bin: standard
Per MPI rank memory allocation (min/avg/max) = 12.06 | 12.06 | 12.06 Mbytes
   Step          Temp          PotEng         KinEng         TotEng         Press          Volume        Density          CPU      
         0   423.15        -184290.75      25225.334     -159065.42      48982.577      402592.25      6.2796667      0            
      1000   327.68674     -167083.02      19534.462     -147548.56      59593.247      402592.25      6.2796667      2.880792     
      2000   431.97914     -161038.56      25751.668     -135286.89      64245.897      402592.25      6.2796667      5.9533656    
      3000   423.64645     -161081.82      25254.929     -135826.89      63859.288      402592.25      6.2796667      9.0218223    
      4000   422.51168     -160894.28      25187.282     -135707         63824.478      402592.25      6.2796667      12.093221    
      5000   426.40142     -160932.23      25419.162     -135513.07      63961.924      402592.25      6.2796667      15.174607    
Loop time of 15.1746 on 1 procs for 5000 steps with 20000 atoms

Performance: 14.234 ns/day, 1.686 hours/ns, 329.498 timesteps/s, 6.590 Matom-step/s
100.0% CPU use with 1 MPI tasks x 1 OpenMP threads

MPI task timing breakdown:
Section |  min time  |  avg time  |  max time  |%varavg| %total
---------------------------------------------------------------
Pair    | 2.4985     | 2.4985     | 2.4985     |   0.0 | 16.47
Neigh   | 0.03678    | 0.03678    | 0.03678    |   0.0 |  0.24
Comm    | 0.049388   | 0.049388   | 0.049388   |   0.0 |  0.33
Output  | 0.0016533  | 0.0016533  | 0.0016533  |   0.0 |  0.01
Modify  | 12.418     | 12.418     | 12.418     |   0.0 | 81.83
Other   |            | 0.1706     |            |       |  1.12

Nlocal:          20000 ave       20000 max       20000 min
Histogram: 1 0 0 0 0 0 0 0 0 0
Nghost:          32436 ave       32436 max       32436 min
Histogram: 1 0 0 0 0 0 0 0 0 0
Neighs:    6.85529e+06 ave 6.85529e+06 max 6.85529e+06 min
Histogram: 1 0 0 0 0 0 0 0 0 0
FullNghs:  1.14236e+07 ave 1.14236e+07 max 1.14236e+07 min
Histogram: 1 0 0 0 0 0 0 0 0 0

Total # of neighbors = 11423584
Ave neighs/atom = 571.1792
Neighbor list builds = 23
Dangerous builds = 0
unfix           nvt

# Increase timestep to normal
timestep        2.0

fix             nvt all nvt temp 423.15 423.15 100.0
run             15000
Generated 0 of 1 mixed pair_coeff terms from geometric mixing rule
Per MPI rank memory allocation (min/avg/max) = 38.77 | 38.77 | 38.77 Mbytes
   Step          Temp          PotEng         KinEng         TotEng         Press          Volume        Density          CPU      
      5000   426.40142     -160932.23      25419.162     -135513.07      63961.924      402592.25      6.2796667      0            
      6000   425.57438     -160960.76      25369.859     -135590.9       63864.041      402592.25      6.2796667      4.1768314    
      7000   423.34604     -161176.77      25237.021     -135939.74      63883.917      402592.25      6.2796667      8.3435335    
      8000   425.17977     -161084.2       25346.335     -135737.86      63836.894      402592.25      6.2796667      12.511659    
      9000   423.9577      -161041.31      25273.484     -135767.82      63692.05       402592.25      6.2796667      16.681229    
     10000   426.16549     -160875.14      25405.097     -135470.04      63939.645      402592.25      6.2796667      20.842863    
     11000   423.66506     -160973.97      25256.038     -135717.94      63721.941      402592.25      6.2796667      25.014809    
     12000   419.36808     -161000.87      24999.882     -136000.99      63718.35       402592.25      6.2796667      29.181789    
     13000   423.99422     -161151.13      25275.661     -135875.47      63646.606      402592.25      6.2796667      33.342852    
     14000   424.16503     -160911.57      25285.843     -135625.73      63867.589      402592.25      6.2796667      37.493863    
     15000   420.25128     -160658.13      25052.532     -135605.6       64038.665      402592.25      6.2796667      41.66113     
     16000   426.58837     -161111.13      25430.307     -135680.82      63782.336      402592.25      6.2796667      45.81092     
     17000   419.89604     -161108.32      25031.355     -136076.96      63810.903      402592.25      6.2796667      49.979012    
     18000   422.35111     -161052.19      25177.71      -135874.48      63753.333      402592.25      6.2796667      54.148885    
     19000   425.67833     -160934.38      25376.056     -135558.32      63977.109      402592.25      6.2796667      58.308393    
     20000   425.13042     -161104.28      25343.393     -135760.89      63681.584      402592.25      6.2796667      62.472377    
Loop time of 62.4724 on 1 procs for 15000 steps with 20000 atoms

Performance: 41.490 ns/day, 0.578 hours/ns, 240.106 timesteps/s, 4.802 Matom-step/s
100.0% CPU use with 1 MPI tasks x 1 OpenMP threads

MPI task timing breakdown:
Section |  min time  |  avg time  |  max time  |%varavg| %total
---------------------------------------------------------------
Pair    | 7.5789     | 7.5789     | 7.5789     |   0.0 | 12.13
Neigh   | 0.46088    | 0.46088    | 0.46088    |   0.0 |  0.74
Comm    | 0.366      | 0.366      | 0.366      |   0.0 |  0.59
Output  | 0.0050539  | 0.0050539  | 0.0050539  |   0.0 |  0.01
Modify  | 53.46      | 53.46      | 53.46      |   0.0 | 85.57
Other   |            | 0.6011     |            |       |  0.96

Nlocal:          20000 ave       20000 max       20000 min
Histogram: 1 0 0 0 0 0 0 0 0 0
Nghost:          32405 ave       32405 max       32405 min
Histogram: 1 0 0 0 0 0 0 0 0 0
Neighs:    6.85365e+06 ave 6.85365e+06 max 6.85365e+06 min
Histogram: 1 0 0 0 0 0 0 0 0 0
FullNghs:  1.14236e+07 ave 1.14236e+07 max 1.14236e+07 min
Histogram: 1 0 0 0 0 0 0 0 0 0

Total # of neighbors = 11423650
Ave neighs/atom = 571.1825
Neighbor list builds = 291
Dangerous builds = 0
unfix           nvt

# ========== Production (NVT) ==========
print "========== H100 GPU Production run =========="
========== H100 GPU Production run ==========

fix             nvt all nvt temp 423.15 423.15 100.0

# Reset RDF for production run
uncompute       myrdf
compute         myrdf all rdf 200 1 1 1 2 2 2 cutoff 12.0
unfix           rdfout
fix             rdfout all ave/time 100 10 1000 c_myrdf[*] file rdf.dat mode vector

run             100000
Generated 0 of 1 mixed pair_coeff terms from geometric mixing rule
Neighbor list info ...
  update: every = 1 steps, delay = 0 steps, check = yes
  max neighbors/atom: 2000, page size: 100000
  master list distance cutoff = 14
  ghost atom cutoff = 14
  binsize = 4, bins = 19 19 19
  3 neighbor lists, perpetual/occasional/extra = 2 1 0
  (1) pair lj/cut, perpetual
      attributes: full, newton off, kokkos_device
      pair build: full/bin/kk/device
      stencil: full/bin/3d
      bin: kk/device
  (2) pair table, perpetual, copy from (1)
      attributes: full, newton off, kokkos_device
      pair build: copy/kk/device
      stencil: none
      bin: none
  (3) compute rdf, occasional
      attributes: half, newton off
      pair build: half/bin/atomonly/newtoff
      stencil: full/bin/3d
      bin: standard
Per MPI rank memory allocation (min/avg/max) = 12.06 | 12.06 | 12.06 Mbytes
   Step          Temp          PotEng         KinEng         TotEng         Press          Volume        Density          CPU      
     20000   425.13042     -161104.28      25343.393     -135760.89      63681.584      402592.25      6.2796667      0            
     21000   424.3783      -160985.35      25298.557     -135686.79      63904.848      402592.25      6.2796667      4.1710076    
     22000   421.25096     -160976.48      25112.126     -135864.36      63793.145      402592.25      6.2796667      8.3304915    
     23000   420.67835     -161244.87      25077.991     -136166.88      63659.091      402592.25      6.2796667      12.498165    
     24000   423.87173     -160982.13      25268.359     -135713.77      63772.58       402592.25      6.2796667      16.662572    
     25000   426.55795     -161053.03      25428.493     -135624.54      63847.723      402592.25      6.2796667      20.829312    
     26000   423.27565     -160881.12      25232.825     -135648.29      63941.847      402592.25      6.2796667      24.998075    
     27000   420.87133     -160669.9       25089.496     -135580.4       63909.105      402592.25      6.2796667      29.156118    
     28000   424.56425     -161209.89      25309.642     -135900.25      63579.568      402592.25      6.2796667      33.308653    
     29000   421.7351      -160993.37      25140.987     -135852.38      63827.842      402592.25      6.2796667      37.480379    
     30000   422.69491     -161185.27      25198.205     -135987.07      63734.613      402592.25      6.2796667      41.637506    
     31000   429.12713     -161304.84      25581.65      -135723.19      63872.831      402592.25      6.2796667      45.801625    
     32000   423.29602     -161119.55      25234.039     -135885.51      63633.08       402592.25      6.2796667      49.963964    
     33000   422.07249     -161102.47      25161.1       -135941.37      63643.521      402592.25      6.2796667      54.120143    
     34000   424.39671     -161014.43      25299.654     -135714.77      63693.232      402592.25      6.2796667      58.291224    
     35000   421.8631      -160824.35      25148.618     -135675.73      63908.289      402592.25      6.2796667      62.442621    
     36000   426.73019     -161241.29      25438.761     -135802.53      63616.956      402592.25      6.2796667      66.605033    
     37000   422.61635     -161023.58      25193.522     -135830.06      63782.329      402592.25      6.2796667      70.767654    
     38000   420.37087     -161052.81      25059.661     -135993.15      63946.097      402592.25      6.2796667      74.929415    
     39000   420.01573     -161040.66      25038.49      -136002.17      63759.679      402592.25      6.2796667      79.093856    
     40000   424.52887     -161011.6       25307.533     -135704.07      63725.215      402592.25      6.2796667      83.262556    
     41000   426.07453     -161026.57      25399.675     -135626.89      63845.199      402592.25      6.2796667      87.426775    
     42000   429.40247     -160822.4       25598.064     -135224.33      63943.89       402592.25      6.2796667      91.597205    
     43000   424.15489     -161085.34      25285.239     -135800.1       63690.972      402592.25      6.2796667      95.75676     
     44000   426.06796     -160834.47      25399.283     -135435.19      63917.969      402592.25      6.2796667      99.924748    
     45000   422.3641      -161051.32      25178.484     -135872.84      63817.212      402592.25      6.2796667      104.08294    
     46000   421.9615      -160801.53      25154.484     -135647.05      63942.984      402592.25      6.2796667      108.23676    
     47000   425.68381     -160659.92      25376.383     -135283.54      63993.341      402592.25      6.2796667      112.41304    
     48000   420.72201     -161038.39      25080.594     -135957.79      63794.11       402592.25      6.2796667      116.56752    
     49000   427.61932     -161002.13      25491.765     -135510.37      63807.895      402592.25      6.2796667      120.7294     
     50000   421.94323     -160864         25153.394     -135710.61      64023.273      402592.25      6.2796667      124.88739    
     51000   427.74858     -161086.64      25499.471     -135587.17      63765.807      402592.25      6.2796667      129.04127    
     52000   421.09149     -161026.64      25102.62      -135924.02      63839.941      402592.25      6.2796667      133.19259    
     53000   423.1923      -161002.14      25227.855     -135774.28      63805.213      402592.25      6.2796667      137.34258    
     54000   423.37044     -161152.24      25238.475     -135913.77      63804.387      402592.25      6.2796667      141.5023     
     55000   420.17216     -160777.44      25047.816     -135729.62      63905.984      402592.25      6.2796667      145.65433    
     56000   423.10559     -160964.5       25222.687     -135741.81      63843.221      402592.25      6.2796667      149.81138    
     57000   426.94213     -161042.4       25451.395     -135591.01      63731.406      402592.25      6.2796667      153.97245    
     58000   424.99545     -161075.18      25335.347     -135739.83      63791.14       402592.25      6.2796667      158.13552    
     59000   424.59815     -161078.67      25311.663     -135767.01      63844.791      402592.25      6.2796667      162.28915    
     60000   426.86739     -161123.36      25446.94      -135676.42      63729.383      402592.25      6.2796667      166.44733    
     61000   427.58113     -160780.11      25489.488     -135290.62      63929.847      402592.25      6.2796667      170.61141    
     62000   420.31159     -160837         25056.127     -135780.87      63829.956      402592.25      6.2796667      174.77999    
     63000   422.34607     -161155.34      25177.409     -135977.93      63610.451      402592.25      6.2796667      178.9438     
     64000   421.81864     -160969.4       25145.967     -135823.44      63827.854      402592.25      6.2796667      183.10999    
     65000   423.31453     -161229.91      25235.143     -135994.76      63719.141      402592.25      6.2796667      187.26495    
     66000   420.76049     -161090.53      25082.888     -136007.64      63764.598      402592.25      6.2796667      191.41964    
     67000   421.70874     -160981.41      25139.416     -135841.99      63684.984      402592.25      6.2796667      195.58298    
     68000   421.17558     -160878.77      25107.633     -135771.14      63954.973      402592.25      6.2796667      199.75114    
     69000   418.40697     -161194.26      24942.587     -136251.67      63651.837      402592.25      6.2796667      203.91203    
     70000   423.42651     -160958.9       25241.818     -135717.08      63759.852      402592.25      6.2796667      208.05687    
     71000   424.84846     -161137.12      25326.585     -135810.53      63649.202      402592.25      6.2796667      212.21304    
     72000   420.17565     -161089.87      25048.024     -136041.85      63757.847      402592.25      6.2796667      216.37746    
     73000   422.17132     -160822.29      25166.992     -135655.29      64007.102      402592.25      6.2796667      220.54182    
     74000   428.24186     -160884.53      25528.876     -135355.66      63945.474      402592.25      6.2796667      224.69819    
     75000   420.18315     -160927.07      25048.471     -135878.6       63731.265      402592.25      6.2796667      228.87058    
     76000   422.67404     -160897.36      25196.96      -135700.4       63813.254      402592.25      6.2796667      233.02205    
     77000   425.39689     -160941.7       25359.278     -135582.42      63868.51       402592.25      6.2796667      237.18135    
     78000   425.10821     -160907.61      25342.07      -135565.54      63914.452      402592.25      6.2796667      241.33553    
     79000   423.3329      -161005.4       25236.237     -135769.16      63937.289      402592.25      6.2796667      245.48833    
     80000   422.25588     -161038.64      25172.033     -135866.6       63659.434      402592.25      6.2796667      249.6488     
     81000   427.63242     -161154.24      25492.546     -135661.69      63808.227      402592.25      6.2796667      253.79804    
     82000   425.91192     -160856.68      25389.981     -135466.7       63873.874      402592.25      6.2796667      257.93738    
     83000   425.67091     -160989.13      25375.614     -135613.51      63682.723      402592.25      6.2796667      262.10242    
     84000   423.95587     -161102.08      25273.374     -135828.71      63819.196      402592.25      6.2796667      266.26384    
     85000   423.90047     -160923.38      25270.072     -135653.31      63932.565      402592.25      6.2796667      270.42653    
     86000   426.55493     -161014.55      25428.313     -135586.23      64023.011      402592.25      6.2796667      274.57358    
     87000   421.48171     -160943.59      25125.882     -135817.71      63981.08       402592.25      6.2796667      278.73295    
     88000   419.4458      -161090.34      25004.515     -136085.83      63656.877      402592.25      6.2796667      282.88259    
     89000   421.27366     -160925.79      25113.48      -135812.31      63818.727      402592.25      6.2796667      287.03386    
     90000   424.93392     -160828.46      25331.679     -135496.78      63977.554      402592.25      6.2796667      291.19617    
     91000   420.41233     -161125.98      25062.133     -136063.85      63777.834      402592.25      6.2796667      295.35364    
     92000   422.71813     -160989.6       25199.589     -135790.01      63894.164      402592.25      6.2796667      299.51295    
     93000   425.45543     -161113.14      25362.768     -135750.37      63795.066      402592.25      6.2796667      303.6703     
     94000   423.1405      -161159.04      25224.768     -135934.27      63845.772      402592.25      6.2796667      307.84089    
     95000   421.39177     -160782.32      25120.52      -135661.8       63954.318      402592.25      6.2796667      312.00221    
     96000   423.95602     -161112.22      25273.384     -135838.84      63748.84       402592.25      6.2796667      316.15643    
     97000   419.17507     -161005.49      24988.376     -136017.11      63790.639      402592.25      6.2796667      320.30548    
     98000   423.94921     -161480.74      25272.978     -136207.76      63489.398      402592.25      6.2796667      324.48277    
     99000   424.6328      -161005.41      25313.728     -135691.68      63967.403      402592.25      6.2796667      328.64285    
    100000   417.95063     -161133.03      24915.383     -136217.65      63734.354      402592.25      6.2796667      332.8049     
    101000   423.46559     -160995.81      25244.147     -135751.67      63766.744      402592.25      6.2796667      336.97227    
    102000   425.67859     -161065.38      25376.072     -135689.3       63823.265      402592.25      6.2796667      341.12309    
    103000   422.39817     -160952.41      25180.515     -135771.9       63782.665      402592.25      6.2796667      345.27039    
    104000   421.17941     -160869.27      25107.861     -135761.41      63875.034      402592.25      6.2796667      349.42542    
    105000   424.84066     -160718.85      25326.12      -135392.73      63928.118      402592.25      6.2796667      353.58747    
    106000   422.26437     -160989.33      25172.539     -135816.79      63802.133      402592.25      6.2796667      357.74372    
    107000   426.00098     -161030.38      25395.29      -135635.09      63971.217      402592.25      6.2796667      361.89785    
    108000   421.64669     -161237.4       25135.717     -136101.68      63724.466      402592.25      6.2796667      366.04884    
    109000   424.76631     -161210.47      25321.688     -135888.78      63792.791      402592.25      6.2796667      370.20199    
    110000   420.90096     -160983.2       25091.262     -135891.94      63769.556      402592.25      6.2796667      374.36013    
    111000   421.84337     -161089.49      25147.442     -135942.04      63552.446      402592.25      6.2796667      378.51108    
    112000   421.8248      -161203.95      25146.334     -136057.61      63690.085      402592.25      6.2796667      382.66282    
    113000   424.45942     -160910.58      25303.393     -135607.19      63979.556      402592.25      6.2796667      386.82737    
    114000   418.36399     -160950.69      24940.025     -136010.66      63685.632      402592.25      6.2796667      390.9838     
    115000   428.11118     -160836.93      25521.086     -135315.84      63896.274      402592.25      6.2796667      395.14175    
    116000   419.31512     -160960.09      24996.725     -135963.36      63852.967      402592.25      6.2796667      399.29753    
    117000   422.94927     -160831.15      25213.368     -135617.78      63935.541      402592.25      6.2796667      403.45458    
    118000   421.87402     -160967.74      25149.269     -135818.47      63794.988      402592.25      6.2796667      407.61512    
    119000   422.26813     -160933.8       25172.763     -135761.04      63821.607      402592.25      6.2796667      411.77788    
    120000   419.8635      -160784.22      25029.415     -135754.81      63880.655      402592.25      6.2796667      415.94158    
Loop time of 415.942 on 1 procs for 100000 steps with 20000 atoms

Performance: 41.544 ns/day, 0.578 hours/ns, 240.418 timesteps/s, 4.808 Matom-step/s
100.0% CPU use with 1 MPI tasks x 1 OpenMP threads

MPI task timing breakdown:
Section |  min time  |  avg time  |  max time  |%varavg| %total
---------------------------------------------------------------
Pair    | 50.373     | 50.373     | 50.373     |   0.0 | 12.11
Neigh   | 3.0725     | 3.0725     | 3.0725     |   0.0 |  0.74
Comm    | 2.4485     | 2.4485     | 2.4485     |   0.0 |  0.59
Output  | 0.034215   | 0.034215   | 0.034215   |   0.0 |  0.01
Modify  | 356.01     | 356.01     | 356.01     |   0.0 | 85.59
Other   |            | 4.003      |            |       |  0.96

Nlocal:          20000 ave       20000 max       20000 min
Histogram: 1 0 0 0 0 0 0 0 0 0
Nghost:          32454 ave       32454 max       32454 min
Histogram: 1 0 0 0 0 0 0 0 0 0
Neighs:    6.85685e+06 ave 6.85685e+06 max 6.85685e+06 min
Histogram: 1 0 0 0 0 0 0 0 0 0
FullNghs:   1.1423e+07 ave  1.1423e+07 max  1.1423e+07 min
Histogram: 1 0 0 0 0 0 0 0 0 0

Total # of neighbors = 11423018
Ave neighs/atom = 571.1509
Neighbor list builds = 1947
Dangerous builds = 0
unfix           nvt

# ========== Finalize ==========
print "========== H100 GPU Simulation completed =========="
========== H100 GPU Simulation completed ==========

# Write restart file for next iteration (use fixed name to avoid shell command issues)
write_restart   outputs/restart.0.data
System init for write_restart ...
Generated 0 of 1 mixed pair_coeff terms from geometric mixing rule

# Final statistics
variable        density_final equal density
variable        temp_final equal temp
variable        press_final equal press

print "========================================="
=========================================
print "FINAL RESULTS:"
FINAL RESULTS:
print "  Density:     ${density_final} g/cm^3"
  Density:     6.27966666056994 g/cm^3
print "  Temperature: ${temp_final} K"
  Temperature: 419.863499633101 K
print "  Pressure:    ${press_final} bar"
  Pressure:    63880.6548810381 bar
print "========================================="
=========================================

print "RDF written to rdf.dat"
RDF written to rdf.dat
print "Restart file written to outputs/restart.0.data"
Restart file written to outputs/restart.0.data
Total wall time: 0:08:14
