LAMMPS (22 Jul 2025 - Update 2)
KOKKOS mode with Kokkos version 4.6.2 is enabled
  will use up to 1 GPU(s) per node
  using 1 OpenMP thread(s) per MPI task
package kokkos
# H100 GPU-Optimized LAMMPS input for EPSR simulation of EGaIn eutectic alloy
# Composition: Ga0.858In0.142
# Temperature: 150Â°C (423.15 K)
# Potential: LJ + Empirical Potential (table)
# GPU: Using KOKKOS for H100 (Hopper architecture)

# ========== KOKKOS Initialization (CRITICAL: Must be first) ==========
# CRITICAL FIX: newton off prevents KOKKOS errors on H100
# Note: pair_style table does not have /kk support, but will run on CPU while LJ runs on GPU
package         kokkos neigh full newton off

# ========== Initialization ==========
units           real
atom_style      atomic
boundary        p p p

# ========== Force field ==========
# Use hybrid/overlay to combine LJ (GPU-accelerated) and table (CPU)
# The -sf kk flag will automatically use lj/cut/kk while table runs on CPU
# NOTE: pair_style must be defined BEFORE read_data if data file contains Pair Coeffs section
pair_style      hybrid/overlay lj/cut 12.0 table linear 200

# ========== Read structure ==========
# Use LJ-equilibrated structure as initial configuration (more stable)
shell           mkdir -p outputs
# nocoeff skips Pair Coeffs section which is incompatible with hybrid/overlay
read_data       outputs/final_structure_lj_H100.data nocoeff
Reading data file ...
  orthogonal box = (0 0 0) to (73.839453 73.839453 73.839453)
  1 by 1 by 1 MPI processor grid
WARNING: Pair style lj/cut/kk in data file differs from currently defined pair style zero (src/read_data.cpp:811)
  reading atoms ...
  20000 atoms
  reading velocities ...
  20000 velocities
  read_data CPU = 0.097 seconds

# LJ potential (GPU-accelerated with -sf kk flag)
pair_coeff      1 1 lj/cut 0.430 2.70    # Ga-Ga
pair_coeff      2 2 lj/cut 0.430 3.11    # In-In
pair_coeff      1 2 lj/cut 0.430 2.905   # Ga-In

# Empirical potential (from table files - runs on CPU)
# Table format: r, U(r), F(r)
pair_coeff      1 1 table data/ep_GaGa.table EP_GAGA 12.0
pair_coeff      2 2 table data/ep_InIn.table EP_ININ 12.0
pair_coeff      1 2 table data/ep_GaIn.table EP_GAIN 12.0

# ========== Settings ==========
mass            1 69.723    # Ga
mass            2 114.818   # In

# Optimized neighbor list for GPU
neighbor        2.0 bin
neigh_modify    delay 0 every 1 check yes binsize 4.0

# ========== Initial velocity ==========
# Re-initialize velocities for this temperature
velocity        all create 423.15 12345 dist gaussian

# ========== Thermodynamic output ==========
thermo          1000
thermo_style    custom step temp pe ke etotal press vol density cpu

# ========== Quick minimization for stability ==========
print "========== Energy Minimization =========="
========== Energy Minimization ==========
minimize        1.0e-4 1.0e-6 1000 10000
Generated 0 of 1 mixed pair_coeff terms from geometric mixing rule
Neighbor list info ...
  update: every = 1 steps, delay = 0 steps, check = yes
  max neighbors/atom: 2000, page size: 100000
  master list distance cutoff = 14
  ghost atom cutoff = 14
  binsize = 4, bins = 19 19 19
  2 neighbor lists, perpetual/occasional/extra = 2 0 0
  (1) pair lj/cut, perpetual
      attributes: full, newton off, kokkos_device
      pair build: full/bin/kk/device
      stencil: full/bin/3d
      bin: kk/device
  (2) pair table, perpetual, copy from (1)
      attributes: full, newton off, kokkos_device
      pair build: copy/kk/device
      stencil: none
      bin: none
WARNING: Fix MINIMIZE/kk not compatible with sending data in Kokkos communication (src/KOKKOS/comm_kokkos.cpp:767)
WARNING: Fix with atom-based arrays not compatible with sending data in Kokkos communication, switching to classic exchange/border communication (src/KOKKOS/comm_kokkos.cpp:780)
WARNING: Fix MINIMIZE/kk not compatible with Kokkos sorting on device (src/KOKKOS/atom_kokkos.cpp:212)
WARNING: Fix with atom-based arrays not compatible with Kokkos sorting on device, switching to classic host sorting (src/KOKKOS/atom_kokkos.cpp:218)
Per MPI rank memory allocation (min/avg/max) = 13.71 | 13.71 | 13.71 Mbytes
   Step          Temp          PotEng         KinEng         TotEng         Press          Volume        Density          CPU      
         0   423.15        -413518.25      25225.334     -388292.91      137708.55      402592.25      6.2796667      0            
        67   423.15        -447064.87      25225.334     -421839.54      129592.46      402592.25      6.2796667      0.10082575   
Loop time of 0.100832 on 1 procs for 67 steps with 20000 atoms

98.4% CPU use with 1 MPI tasks x 1 OpenMP threads

Minimization stats:
  Stopping criterion = energy tolerance
  Energy initial, next-to-last, final = 
     -413518.246648768  -447023.148542832  -447064.872370886
  Force two-norm initial, final = 1444.9631 53.548131
  Force max component initial, final = 43.023216 5.0014151
  Final line search alpha, max atom move = 0.0086331869 0.043178151
  Iterations, force evaluations = 67 67

MPI task timing breakdown:
Section |  min time  |  avg time  |  max time  |%varavg| %total
---------------------------------------------------------------
Pair    | 0.081838   | 0.081838   | 0.081838   |   0.0 | 81.16
Neigh   | 0.0025228  | 0.0025228  | 0.0025228  |   0.0 |  2.50
Comm    | 0.0043533  | 0.0043533  | 0.0043533  |   0.0 |  4.32
Output  | 0          | 0          | 0          |   0.0 |  0.00
Modify  | 0          | 0          | 0          |   0.0 |  0.00
Other   |            | 0.01212    |            |       | 12.02

Nlocal:          20000 ave       20000 max       20000 min
Histogram: 1 0 0 0 0 0 0 0 0 0
Nghost:          32517 ave       32517 max       32517 min
Histogram: 1 0 0 0 0 0 0 0 0 0
Neighs:              0 ave           0 max           0 min
Histogram: 1 0 0 0 0 0 0 0 0 0
FullNghs:  1.14342e+07 ave 1.14342e+07 max 1.14342e+07 min
Histogram: 1 0 0 0 0 0 0 0 0 0

Total # of neighbors = 11434212
Ave neighs/atom = 571.7106
Neighbor list builds = 2
Dangerous builds = 0
reset_timestep  0

# ========== RDF computation ==========
# Compute total and partial pair distribution functions
compute         myrdf all rdf 200 1 1 1 2 2 2 cutoff 12.0

# Time-average RDF output
fix             rdfout all ave/time 100 10 1000 c_myrdf[*] file rdf.dat mode vector

# ========== Equilibration (NVT) ==========
print "========== H100 GPU Equilibration =========="
========== H100 GPU Equilibration ==========

# Start with small timestep for stability
timestep        0.5

fix             nvt all nvt temp 423.15 423.15 100.0
run             5000
Generated 0 of 1 mixed pair_coeff terms from geometric mixing rule
Neighbor list info ...
  update: every = 1 steps, delay = 0 steps, check = yes
  max neighbors/atom: 2000, page size: 100000
  master list distance cutoff = 14
  ghost atom cutoff = 14
  binsize = 4, bins = 19 19 19
  3 neighbor lists, perpetual/occasional/extra = 2 1 0
  (1) pair lj/cut, perpetual
      attributes: full, newton off, kokkos_device
      pair build: full/bin/kk/device
      stencil: full/bin/3d
      bin: kk/device
  (2) pair table, perpetual, copy from (1)
      attributes: full, newton off, kokkos_device
      pair build: copy/kk/device
      stencil: none
      bin: none
  (3) compute rdf, occasional
      attributes: half, newton off
      pair build: half/bin/atomonly/newtoff
      stencil: full/bin/3d
      bin: standard
Per MPI rank memory allocation (min/avg/max) = 12.07 | 12.07 | 12.07 Mbytes
   Step          Temp          PotEng         KinEng         TotEng         Press          Volume        Density          CPU      
         0   423.15        -447064.87      25225.334     -421839.54      129592.46      402592.25      6.2796667      0            
      1000   334.40729     -429411.2       19935.095     -409476.1       138831.69      402592.25      6.2796667      2.898965     
      2000   430.52526     -423444.91      25664.997     -397779.91      142412.6       402592.25      6.2796667      5.976216     
      3000   425.51338     -423567.09      25366.223     -398200.87      142016.86      402592.25      6.2796667      9.0596624    
      4000   424.3043      -423170.36      25294.145     -397876.21      142186.95      402592.25      6.2796667      12.141318    
      5000   425.73073     -423343.2       25379.18      -397964.02      142111.14      402592.25      6.2796667      15.227747    
Loop time of 15.2278 on 1 procs for 5000 steps with 20000 atoms

Performance: 14.185 ns/day, 1.692 hours/ns, 328.348 timesteps/s, 6.567 Matom-step/s
99.9% CPU use with 1 MPI tasks x 1 OpenMP threads

MPI task timing breakdown:
Section |  min time  |  avg time  |  max time  |%varavg| %total
---------------------------------------------------------------
Pair    | 2.5184     | 2.5184     | 2.5184     |   0.0 | 16.54
Neigh   | 0.036892   | 0.036892   | 0.036892   |   0.0 |  0.24
Comm    | 0.050071   | 0.050071   | 0.050071   |   0.0 |  0.33
Output  | 0.0016983  | 0.0016983  | 0.0016983  |   0.0 |  0.01
Modify  | 12.449     | 12.449     | 12.449     |   0.0 | 81.75
Other   |            | 0.1717     |            |       |  1.13

Nlocal:          20000 ave       20000 max       20000 min
Histogram: 1 0 0 0 0 0 0 0 0 0
Nghost:          32528 ave       32528 max       32528 min
Histogram: 1 0 0 0 0 0 0 0 0 0
Neighs:    6.85842e+06 ave 6.85842e+06 max 6.85842e+06 min
Histogram: 1 0 0 0 0 0 0 0 0 0
FullNghs:  1.14246e+07 ave 1.14246e+07 max 1.14246e+07 min
Histogram: 1 0 0 0 0 0 0 0 0 0

Total # of neighbors = 11424560
Ave neighs/atom = 571.228
Neighbor list builds = 23
Dangerous builds = 0
unfix           nvt

# Increase timestep to normal
timestep        2.0

fix             nvt all nvt temp 423.15 423.15 100.0
run             15000
Generated 0 of 1 mixed pair_coeff terms from geometric mixing rule
Per MPI rank memory allocation (min/avg/max) = 38.39 | 38.39 | 38.39 Mbytes
   Step          Temp          PotEng         KinEng         TotEng         Press          Volume        Density          CPU      
      5000   425.73073     -423343.2       25379.18      -397964.02      142111.14      402592.25      6.2796667      0            
      6000   423.50352     -423437.46      25246.409     -398191.06      141952.81      402592.25      6.2796667      4.1675641    
      7000   428.41022     -423407.88      25538.913     -397868.96      142203.66      402592.25      6.2796667      8.3558014    
      8000   426.32638     -424066.73      25414.688     -398652.04      141781.89      402592.25      6.2796667      12.532561    
      9000   423.16202     -423267.95      25226.051     -398041.9       142139.18      402592.25      6.2796667      16.714436    
     10000   424.97071     -423558.63      25333.873     -398224.76      142200.32      402592.25      6.2796667      20.896448    
     11000   427.16131     -423163.74      25464.461     -397699.28      142308.42      402592.25      6.2796667      25.069182    
     12000   424.64177     -423956.77      25314.263     -398642.5       141946.57      402592.25      6.2796667      29.241941    
     13000   418.79823     -423591.63      24965.911     -398625.72      141919.44      402592.25      6.2796667      33.414357    
     14000   423.59308     -423548.27      25251.748     -398296.52      142000         402592.25      6.2796667      37.598667    
     15000   420.76154     -423722.96      25082.95      -398640.01      142047.56      402592.25      6.2796667      41.770944    
     16000   420.02468     -423710.95      25039.024     -398671.93      141809.72      402592.25      6.2796667      45.944468    
     17000   422.52918     -423744.27      25188.325     -398555.95      141802.03      402592.25      6.2796667      50.134313    
     18000   419.37828     -423374.12      25000.49      -398373.63      141990.58      402592.25      6.2796667      54.31887     
     19000   419.23504     -423489.84      24991.951     -398497.89      142106.55      402592.25      6.2796667      58.487192    
     20000   424.79019     -423934.85      25323.111     -398611.73      141644.05      402592.25      6.2796667      62.654147    
Loop time of 62.6542 on 1 procs for 15000 steps with 20000 atoms

Performance: 41.370 ns/day, 0.580 hours/ns, 239.410 timesteps/s, 4.788 Matom-step/s
100.0% CPU use with 1 MPI tasks x 1 OpenMP threads

MPI task timing breakdown:
Section |  min time  |  avg time  |  max time  |%varavg| %total
---------------------------------------------------------------
Pair    | 7.6164     | 7.6164     | 7.6164     |   0.0 | 12.16
Neigh   | 0.46107    | 0.46107    | 0.46107    |   0.0 |  0.74
Comm    | 0.37092    | 0.37092    | 0.37092    |   0.0 |  0.59
Output  | 0.0050975  | 0.0050975  | 0.0050975  |   0.0 |  0.01
Modify  | 53.596     | 53.596     | 53.596     |   0.0 | 85.54
Other   |            | 0.6046     |            |       |  0.97

Nlocal:          20000 ave       20000 max       20000 min
Histogram: 1 0 0 0 0 0 0 0 0 0
Nghost:          32477 ave       32477 max       32477 min
Histogram: 1 0 0 0 0 0 0 0 0 0
Neighs:     6.8557e+06 ave  6.8557e+06 max  6.8557e+06 min
Histogram: 1 0 0 0 0 0 0 0 0 0
FullNghs:  1.14254e+07 ave 1.14254e+07 max 1.14254e+07 min
Histogram: 1 0 0 0 0 0 0 0 0 0

Total # of neighbors = 11425386
Ave neighs/atom = 571.2693
Neighbor list builds = 292
Dangerous builds = 0
unfix           nvt

# ========== Production (NVT) ==========
print "========== H100 GPU Production run =========="
========== H100 GPU Production run ==========

fix             nvt all nvt temp 423.15 423.15 100.0

# Reset RDF for production run
uncompute       myrdf
compute         myrdf all rdf 200 1 1 1 2 2 2 cutoff 12.0
unfix           rdfout
fix             rdfout all ave/time 100 10 1000 c_myrdf[*] file rdf.dat mode vector

run             100000
Generated 0 of 1 mixed pair_coeff terms from geometric mixing rule
Neighbor list info ...
  update: every = 1 steps, delay = 0 steps, check = yes
  max neighbors/atom: 2000, page size: 100000
  master list distance cutoff = 14
  ghost atom cutoff = 14
  binsize = 4, bins = 19 19 19
  3 neighbor lists, perpetual/occasional/extra = 2 1 0
  (1) pair lj/cut, perpetual
      attributes: full, newton off, kokkos_device
      pair build: full/bin/kk/device
      stencil: full/bin/3d
      bin: kk/device
  (2) pair table, perpetual, copy from (1)
      attributes: full, newton off, kokkos_device
      pair build: copy/kk/device
      stencil: none
      bin: none
  (3) compute rdf, occasional
      attributes: half, newton off
      pair build: half/bin/atomonly/newtoff
      stencil: full/bin/3d
      bin: standard
Per MPI rank memory allocation (min/avg/max) = 12.06 | 12.06 | 12.06 Mbytes
   Step          Temp          PotEng         KinEng         TotEng         Press          Volume        Density          CPU      
     20000   424.79019     -423934.85      25323.111     -398611.73      141644.05      402592.25      6.2796667      0            
     21000   424.91799     -423591.24      25330.73      -398260.51      142029.38      402592.25      6.2796667      4.1803411    
     22000   429.01222     -423634.79      25574.8       -398059.99      142127.42      402592.25      6.2796667      8.3567157    
     23000   426.07189     -423703.9       25399.518     -398304.39      141973.23      402592.25      6.2796667      12.521621    
     24000   424.28149     -424143.67      25292.786     -398850.89      141834.12      402592.25      6.2796667      16.693848    
     25000   428.11696     -423741.04      25521.431     -398219.61      142027.16      402592.25      6.2796667      20.87054     
     26000   421.89569     -423716.11      25150.561     -398565.55      141983.34      402592.25      6.2796667      25.044321    
     27000   425.09125     -423887.74      25341.058     -398546.68      141846.39      402592.25      6.2796667      29.210784    
     28000   424.61205     -423639.09      25312.491     -398326.59      142024.36      402592.25      6.2796667      33.382499    
     29000   421.5972      -423789.58      25132.767     -398656.81      141882.81      402592.25      6.2796667      37.558693    
     30000   426.48781     -423438.98      25424.312     -398014.67      142103.03      402592.25      6.2796667      41.731687    
     31000   422.17931     -423850.23      25167.468     -398682.76      141979.49      402592.25      6.2796667      45.898346    
     32000   422.75352     -423251.63      25201.699     -398049.93      142118.91      402592.25      6.2796667      50.072115    
     33000   422.15654     -423634.03      25166.111     -398467.92      141826.87      402592.25      6.2796667      54.244771    
     34000   419.10477     -423731.57      24984.185     -398747.38      141978.94      402592.25      6.2796667      58.420228    
     35000   423.72042     -423558.09      25259.339     -398298.75      141943.06      402592.25      6.2796667      62.594374    
     36000   425.04655     -423696.24      25338.393     -398357.85      141992.51      402592.25      6.2796667      66.771983    
     37000   422.48613     -423785.89      25185.759     -398600.13      142067.89      402592.25      6.2796667      70.944873    
     38000   421.32736     -423312.8       25116.681     -398196.12      142151         402592.25      6.2796667      75.131122    
     39000   421.10798     -423282.63      25103.602     -398179.03      141971.29      402592.25      6.2796667      79.293309    
     40000   424.90549     -423828.58      25329.984     -398498.6       142171.39      402592.25      6.2796667      83.469087    
     41000   420.33349     -423553.12      25057.433     -398495.69      142068.76      402592.25      6.2796667      87.646034    
     42000   423.69831     -423628.46      25258.021     -398370.43      141944.33      402592.25      6.2796667      91.826961    
     43000   421.13253     -423437.28      25105.066     -398332.21      141961.4       402592.25      6.2796667      96.005357    
     44000   425.55573     -423730.67      25368.748     -398361.92      141877.74      402592.25      6.2796667      100.17522    
     45000   421.81999     -423670.95      25146.048     -398524.9       141798.69      402592.25      6.2796667      104.35558    
     46000   423.43058     -423344.36      25242.06      -398102.3       142035.29      402592.25      6.2796667      108.53381    
     47000   423.43292     -423810         25242.2       -398567.8       141974         402592.25      6.2796667      112.71248    
     48000   422.04675     -423859.64      25159.566     -398700.08      142108.41      402592.25      6.2796667      116.88303    
     49000   423.86741     -423514.97      25268.101     -398246.86      141882.62      402592.25      6.2796667      121.06025    
     50000   420.94305     -423960.45      25093.771     -398866.68      141749.69      402592.25      6.2796667      125.23144    
     51000   427.78978     -423800.88      25501.926     -398298.95      142165.38      402592.25      6.2796667      129.4076     
     52000   427.87366     -423593.76      25506.927     -398086.83      141949.24      402592.25      6.2796667      133.56786    
     53000   424.07368     -424207.98      25280.398     -398927.58      141753.22      402592.25      6.2796667      137.73362    
     54000   424.36346     -423616.28      25297.673     -398318.61      141866.92      402592.25      6.2796667      141.91475    
     55000   422.403       -423930.08      25180.803     -398749.28      141815.15      402592.25      6.2796667      146.08869    
     56000   421.62645     -423869.35      25134.511     -398734.84      141846.5       402592.25      6.2796667      150.26375    
     57000   425.78572     -423717.04      25382.458     -398334.58      141916.12      402592.25      6.2796667      154.42965    
     58000   422.82511     -423705.23      25205.966     -398499.26      141768.11      402592.25      6.2796667      158.60037    
     59000   420.74178     -422898.16      25081.772     -397816.39      142317.88      402592.25      6.2796667      162.77261    
     60000   423.90327     -423611.96      25270.239     -398341.72      142215.46      402592.25      6.2796667      166.94734    
     61000   422.50281     -423380.69      25186.753     -398193.94      142090.97      402592.25      6.2796667      171.12503    
     62000   420.61368     -424088.06      25074.136     -399013.93      141957.97      402592.25      6.2796667      175.29888    
     63000   422.85121     -423774.92      25207.522     -398567.39      142104.71      402592.25      6.2796667      179.47646    
     64000   422.99343     -423510.99      25216         -398294.99      141997.63      402592.25      6.2796667      183.65297    
     65000   423.01216     -423852.88      25217.117     -398635.76      141873.46      402592.25      6.2796667      187.82248    
     66000   425.5735      -423352.11      25369.807     -397982.3       142135.26      402592.25      6.2796667      191.99558    
     67000   423.57133     -423846.68      25250.451     -398596.23      141836.75      402592.25      6.2796667      196.17258    
     68000   424.92173     -423662.43      25330.953     -398331.48      142070.86      402592.25      6.2796667      200.36234    
     69000   423.89004     -423736.07      25269.45      -398466.62      141926.62      402592.25      6.2796667      204.53754    
     70000   424.27966     -423902.22      25292.677     -398609.54      141901.62      402592.25      6.2796667      208.71208    
     71000   425.06081     -423200.71      25339.244     -397861.47      142098.95      402592.25      6.2796667      212.88509    
     72000   427.87158     -423809.55      25506.802     -398302.75      141936.45      402592.25      6.2796667      217.05374    
     73000   420.55622     -423504.4       25070.711     -398433.69      141991.39      402592.25      6.2796667      221.23823    
     74000   420.94758     -423608.77      25094.041     -398514.73      141858.84      402592.25      6.2796667      225.404      
     75000   427.67721     -423862.93      25495.216     -398367.71      141867.18      402592.25      6.2796667      229.57491    
     76000   426.94604     -423857.85      25451.628     -398406.23      141948.14      402592.25      6.2796667      233.74823    
     77000   419.43792     -423765.65      25004.045     -398761.61      141660.39      402592.25      6.2796667      237.92111    
     78000   422.19518     -423537.94      25168.414     -398369.53      142146.5       402592.25      6.2796667      242.0982     
     79000   424.42524     -423839.35      25301.355     -398538         142072.39      402592.25      6.2796667      246.27238    
     80000   424.27988     -423646.74      25292.69      -398354.05      141833.57      402592.25      6.2796667      250.45956    
     81000   420.97852     -423376.47      25095.885     -398280.59      142170.13      402592.25      6.2796667      254.64206    
     82000   418.42456     -423638.36      24943.635     -398694.73      141979.7       402592.25      6.2796667      258.8321     
     83000   424.03842     -423838.84      25278.296     -398560.55      141845.54      402592.25      6.2796667      263.00748    
     84000   421.90051     -423776.23      25150.848     -398625.38      141923.14      402592.25      6.2796667      267.16683    
     85000   425.02239     -423877.76      25336.954     -398540.81      141935.06      402592.25      6.2796667      271.33781    
     86000   428.00266     -423664.38      25514.617     -398149.76      141966.97      402592.25      6.2796667      275.50306    
     87000   422.11654     -423777.13      25163.726     -398613.4       141796.47      402592.25      6.2796667      279.66212    
     88000   422.79907     -423964.92      25204.414     -398760.5       142031.81      402592.25      6.2796667      283.83349    
     89000   428.28126     -423438.05      25531.225     -397906.82      141960.73      402592.25      6.2796667      288.00076    
     90000   421.85356     -423975.3       25148.049     -398827.25      141931.07      402592.25      6.2796667      292.1685     
     91000   424.22407     -423625.68      25289.363     -398336.32      141899.28      402592.25      6.2796667      296.33613    
     92000   420.62375     -423977.37      25074.736     -398902.64      141808.54      402592.25      6.2796667      300.50704    
     93000   421.9283      -423661.93      25152.504     -398509.42      141907.6       402592.25      6.2796667      304.68373    
     94000   420.52906     -423730.21      25069.091     -398661.12      141908.92      402592.25      6.2796667      308.86471    
     95000   421.5676      -423617.89      25131.002     -398486.89      142205.66      402592.25      6.2796667      313.03882    
     96000   422.53502     -423680.9       25188.673     -398492.22      141973         402592.25      6.2796667      317.21127    
     97000   423.52259     -423739.63      25247.545     -398492.09      141946.43      402592.25      6.2796667      321.38126    
     98000   423.3046      -423531         25234.551     -398296.45      141734.9       402592.25      6.2796667      325.55448    
     99000   423.59631     -423486.53      25251.94      -398234.59      142112.87      402592.25      6.2796667      329.72966    
    100000   422.89615     -423391.86      25210.201     -398181.65      141923.46      402592.25      6.2796667      333.90928    
    101000   420.71911     -423496.56      25080.421     -398416.13      141923.7       402592.25      6.2796667      338.08506    
    102000   422.54232     -423534.67      25189.108     -398345.57      142014.37      402592.25      6.2796667      342.27655    
    103000   420.06861     -423708.12      25041.643     -398666.47      142119.62      402592.25      6.2796667      346.43597    
    104000   424.78778     -423340.21      25322.968     -398017.24      142046.24      402592.25      6.2796667      350.60807    
    105000   424.88906     -423778.84      25329.005     -398449.84      141979.63      402592.25      6.2796667      354.77824    
    106000   425.42305     -423861.63      25360.838     -398500.8       141796.01      402592.25      6.2796667      358.94097    
    107000   423.53137     -423763.37      25248.069     -398515.3       141871.48      402592.25      6.2796667      363.11252    
    108000   425.44602     -423684.71      25362.207     -398322.5       142066.89      402592.25      6.2796667      367.28823    
    109000   426.7746      -423966.86      25441.408     -398525.45      142035.73      402592.25      6.2796667      371.46916    
    110000   423.45359     -423575.55      25243.432     -398332.12      142099.93      402592.25      6.2796667      375.63245    
    111000   423.10391     -423555.71      25222.587     -398333.12      142043.36      402592.25      6.2796667      379.79675    
    112000   420.56803     -423808.08      25071.415     -398736.66      141842.32      402592.25      6.2796667      383.96281    
    113000   425.21778     -423524.91      25348.601     -398176.31      141963.32      402592.25      6.2796667      388.1317     
    114000   424.38147     -423412.59      25298.746     -398113.85      142127.36      402592.25      6.2796667      392.3063     
    115000   424.12562     -423682.36      25283.494     -398398.87      141781.23      402592.25      6.2796667      396.47711    
    116000   422.82867     -423539.48      25206.179     -398333.3       141937.74      402592.25      6.2796667      400.65028    
    117000   423.95034     -423736.18      25273.045     -398463.14      142066.37      402592.25      6.2796667      404.81842    
    118000   423.61113     -424055.43      25252.824     -398802.6       141881.26      402592.25      6.2796667      408.99338    
    119000   424.82588     -424296.83      25325.239     -398971.59      141758.83      402592.25      6.2796667      413.1615     
    120000   424.09867     -424101         25281.887     -398819.12      141829.68      402592.25      6.2796667      417.32198    
Loop time of 417.322 on 1 procs for 100000 steps with 20000 atoms

Performance: 41.407 ns/day, 0.580 hours/ns, 239.623 timesteps/s, 4.792 Matom-step/s
100.0% CPU use with 1 MPI tasks x 1 OpenMP threads

MPI task timing breakdown:
Section |  min time  |  avg time  |  max time  |%varavg| %total
---------------------------------------------------------------
Pair    | 50.739     | 50.739     | 50.739     |   0.0 | 12.16
Neigh   | 3.0661     | 3.0661     | 3.0661     |   0.0 |  0.73
Comm    | 2.4474     | 2.4474     | 2.4474     |   0.0 |  0.59
Output  | 0.034512   | 0.034512   | 0.034512   |   0.0 |  0.01
Modify  | 357.01     | 357.01     | 357.01     |   0.0 | 85.55
Other   |            | 4.025      |            |       |  0.96

Nlocal:          20000 ave       20000 max       20000 min
Histogram: 1 0 0 0 0 0 0 0 0 0
Nghost:          32441 ave       32441 max       32441 min
Histogram: 1 0 0 0 0 0 0 0 0 0
Neighs:    6.85562e+06 ave 6.85562e+06 max 6.85562e+06 min
Histogram: 1 0 0 0 0 0 0 0 0 0
FullNghs:  1.14242e+07 ave 1.14242e+07 max 1.14242e+07 min
Histogram: 1 0 0 0 0 0 0 0 0 0

Total # of neighbors = 11424172
Ave neighs/atom = 571.2086
Neighbor list builds = 1945
Dangerous builds = 0
unfix           nvt

# ========== Finalize ==========
print "========== H100 GPU Simulation completed =========="
========== H100 GPU Simulation completed ==========

# Write restart file for next iteration (use fixed name to avoid shell command issues)
write_restart   outputs/restart.0.data
System init for write_restart ...
Generated 0 of 1 mixed pair_coeff terms from geometric mixing rule

# Final statistics
variable        density_final equal density
variable        temp_final equal temp
variable        press_final equal press

print "========================================="
=========================================
print "FINAL RESULTS:"
FINAL RESULTS:
print "  Density:     ${density_final} g/cm^3"
  Density:     6.27966666056994 g/cm^3
print "  Temperature: ${temp_final} K"
  Temperature: 424.098670735323 K
print "  Pressure:    ${press_final} bar"
  Pressure:    141829.678140977 bar
print "========================================="
=========================================

print "RDF written to rdf.dat"
RDF written to rdf.dat
print "Restart file written to outputs/restart.0.data"
Restart file written to outputs/restart.0.data
Total wall time: 0:08:15
