LAMMPS (22 Jul 2025 - Update 2)
KOKKOS mode with Kokkos version 4.6.2 is enabled
  will use up to 1 GPU(s) per node
  using 1 OpenMP thread(s) per MPI task
package kokkos
# H100 GPU-Optimized LAMMPS input for EPSR simulation of EGaIn eutectic alloy
# Composition: Ga0.858In0.142
# Temperature: 150Â°C (423.15 K)
# Potential: LJ + Empirical Potential (table)
# GPU: Using KOKKOS for H100 (Hopper architecture)

# ========== KOKKOS Initialization (CRITICAL: Must be first) ==========
# CRITICAL FIX: newton off prevents KOKKOS errors on H100
# Note: pair_style table does not have /kk support, but will run on CPU while LJ runs on GPU
package         kokkos neigh full newton off

# ========== Initialization ==========
units           real
atom_style      atomic
boundary        p p p

# ========== Force field ==========
# Use hybrid/overlay to combine LJ (GPU-accelerated) and table (CPU)
# The -sf kk flag will automatically use lj/cut/kk while table runs on CPU
# NOTE: pair_style must be defined BEFORE read_data if data file contains Pair Coeffs section
pair_style      hybrid/overlay lj/cut 12.0 table linear 200

# ========== Read structure ==========
# Use LJ-equilibrated structure as initial configuration (more stable)
shell           mkdir -p outputs
# nocoeff skips Pair Coeffs section which is incompatible with hybrid/overlay
read_data       outputs/final_structure_lj_H100.data nocoeff
Reading data file ...
  orthogonal box = (0 0 0) to (73.839453 73.839453 73.839453)
  1 by 1 by 1 MPI processor grid
WARNING: Pair style lj/cut/kk in data file differs from currently defined pair style zero (src/read_data.cpp:811)
  reading atoms ...
  20000 atoms
  reading velocities ...
  20000 velocities
  read_data CPU = 0.099 seconds

# LJ potential (GPU-accelerated with -sf kk flag)
pair_coeff      1 1 lj/cut 0.430 2.70    # Ga-Ga
pair_coeff      2 2 lj/cut 0.430 3.11    # In-In
pair_coeff      1 2 lj/cut 0.430 2.905   # Ga-In

# Empirical potential (from table files - runs on CPU)
# Table format: r, U(r), F(r)
pair_coeff      1 1 table data/ep_GaGa.table EP_GAGA 12.0
pair_coeff      2 2 table data/ep_InIn.table EP_ININ 12.0
pair_coeff      1 2 table data/ep_GaIn.table EP_GAIN 12.0

# ========== Settings ==========
mass            1 69.723    # Ga
mass            2 114.818   # In

# Optimized neighbor list for GPU
neighbor        2.0 bin
neigh_modify    delay 0 every 1 check yes binsize 4.0

# ========== Initial velocity ==========
# Re-initialize velocities for this temperature
velocity        all create 423.15 12345 dist gaussian

# ========== Thermodynamic output ==========
thermo          1000
thermo_style    custom step temp pe ke etotal press vol density cpu

# ========== Quick minimization for stability ==========
print "========== Energy Minimization =========="
========== Energy Minimization ==========
minimize        1.0e-4 1.0e-6 1000 10000
Generated 0 of 1 mixed pair_coeff terms from geometric mixing rule
Neighbor list info ...
  update: every = 1 steps, delay = 0 steps, check = yes
  max neighbors/atom: 2000, page size: 100000
  master list distance cutoff = 14
  ghost atom cutoff = 14
  binsize = 4, bins = 19 19 19
  2 neighbor lists, perpetual/occasional/extra = 2 0 0
  (1) pair lj/cut, perpetual
      attributes: full, newton off, kokkos_device
      pair build: full/bin/kk/device
      stencil: full/bin/3d
      bin: kk/device
  (2) pair table, perpetual, copy from (1)
      attributes: full, newton off, kokkos_device
      pair build: copy/kk/device
      stencil: none
      bin: none
WARNING: Fix MINIMIZE/kk not compatible with sending data in Kokkos communication (src/KOKKOS/comm_kokkos.cpp:767)
WARNING: Fix with atom-based arrays not compatible with sending data in Kokkos communication, switching to classic exchange/border communication (src/KOKKOS/comm_kokkos.cpp:780)
WARNING: Fix MINIMIZE/kk not compatible with Kokkos sorting on device (src/KOKKOS/atom_kokkos.cpp:212)
WARNING: Fix with atom-based arrays not compatible with Kokkos sorting on device, switching to classic host sorting (src/KOKKOS/atom_kokkos.cpp:218)
Per MPI rank memory allocation (min/avg/max) = 13.71 | 13.71 | 13.71 Mbytes
   Step          Temp          PotEng         KinEng         TotEng         Press          Volume        Density          CPU      
         0   423.15        -81016.291      25225.334     -55790.956      37100.891      402592.25      6.2796667      0            
       149   423.15        -104318.34      25225.334     -79093.006      20324.023      402592.25      6.2796667      0.23997034   
Loop time of 0.239977 on 1 procs for 149 steps with 20000 atoms

99.6% CPU use with 1 MPI tasks x 1 OpenMP threads

Minimization stats:
  Stopping criterion = energy tolerance
  Energy initial, next-to-last, final = 
     -81016.2905798766   -104313.61159427  -104318.339907258
  Force two-norm initial, final = 1502.7835 18.556234
  Force max component initial, final = 43.169396 0.86210564
  Final line search alpha, max atom move = 0.018289878 0.015767807
  Iterations, force evaluations = 149 168

MPI task timing breakdown:
Section |  min time  |  avg time  |  max time  |%varavg| %total
---------------------------------------------------------------
Pair    | 0.20345    | 0.20345    | 0.20345    |   0.0 | 84.78
Neigh   | 0.0061154  | 0.0061154  | 0.0061154  |   0.0 |  2.55
Comm    | 0.006864   | 0.006864   | 0.006864   |   0.0 |  2.86
Output  | 0          | 0          | 0          |   0.0 |  0.00
Modify  | 0          | 0          | 0          |   0.0 |  0.00
Other   |            | 0.02355    |            |       |  9.81

Nlocal:          20000 ave       20000 max       20000 min
Histogram: 1 0 0 0 0 0 0 0 0 0
Nghost:          32413 ave       32413 max       32413 min
Histogram: 1 0 0 0 0 0 0 0 0 0
Neighs:              0 ave           0 max           0 min
Histogram: 1 0 0 0 0 0 0 0 0 0
FullNghs:  1.14466e+07 ave 1.14466e+07 max 1.14466e+07 min
Histogram: 1 0 0 0 0 0 0 0 0 0

Total # of neighbors = 11446580
Ave neighs/atom = 572.329
Neighbor list builds = 5
Dangerous builds = 0
reset_timestep  0

# ========== RDF computation ==========
# Compute total and partial pair distribution functions
compute         myrdf all rdf 200 1 1 1 2 2 2 cutoff 12.0

# Time-average RDF output
fix             rdfout all ave/time 100 10 1000 c_myrdf[*] file rdf.dat mode vector

# ========== Equilibration (NVT) ==========
print "========== H100 GPU Equilibration =========="
========== H100 GPU Equilibration ==========

# Start with small timestep for stability
timestep        0.5

fix             nvt all nvt temp 423.15 423.15 100.0
run             5000
Generated 0 of 1 mixed pair_coeff terms from geometric mixing rule
Neighbor list info ...
  update: every = 1 steps, delay = 0 steps, check = yes
  max neighbors/atom: 2000, page size: 100000
  master list distance cutoff = 14
  ghost atom cutoff = 14
  binsize = 4, bins = 19 19 19
  3 neighbor lists, perpetual/occasional/extra = 2 1 0
  (1) pair lj/cut, perpetual
      attributes: full, newton off, kokkos_device
      pair build: full/bin/kk/device
      stencil: full/bin/3d
      bin: kk/device
  (2) pair table, perpetual, copy from (1)
      attributes: full, newton off, kokkos_device
      pair build: copy/kk/device
      stencil: none
      bin: none
  (3) compute rdf, occasional
      attributes: half, newton off
      pair build: half/bin/atomonly/newtoff
      stencil: full/bin/3d
      bin: standard
Per MPI rank memory allocation (min/avg/max) = 12.06 | 12.06 | 12.06 Mbytes
   Step          Temp          PotEng         KinEng         TotEng         Press          Volume        Density          CPU      
         0   423.15        -104318.34      25225.334     -79093.006      20324.023      402592.25      6.2796667      0            
      1000   323.30576     -87146.391      19273.298     -67873.093      33071.293      402592.25      6.2796667      2.8750943    
      2000   429.87541     -81119.96       25626.257     -55493.703      38357.192      402592.25      6.2796667      5.9589666    
      3000   421.84252     -81061.361      25147.391     -55913.97       38205.605      402592.25      6.2796667      9.0438318    
      4000   420.31069     -80852.653      25056.074     -55796.58       38302.105      402592.25      6.2796667      12.132944    
      5000   421.57776     -80837.837      25131.608     -55706.229      38317.238      402592.25      6.2796667      15.222827    
Loop time of 15.2228 on 1 procs for 5000 steps with 20000 atoms

Performance: 14.189 ns/day, 1.691 hours/ns, 328.454 timesteps/s, 6.569 Matom-step/s
99.9% CPU use with 1 MPI tasks x 1 OpenMP threads

MPI task timing breakdown:
Section |  min time  |  avg time  |  max time  |%varavg| %total
---------------------------------------------------------------
Pair    | 2.5023     | 2.5023     | 2.5023     |   0.0 | 16.44
Neigh   | 0.038345   | 0.038345   | 0.038345   |   0.0 |  0.25
Comm    | 0.05064    | 0.05064    | 0.05064    |   0.0 |  0.33
Output  | 0.001877   | 0.001877   | 0.001877   |   0.0 |  0.01
Modify  | 12.46      | 12.46      | 12.46      |   0.0 | 81.85
Other   |            | 0.1695     |            |       |  1.11

Nlocal:          20000 ave       20000 max       20000 min
Histogram: 1 0 0 0 0 0 0 0 0 0
Nghost:          32458 ave       32458 max       32458 min
Histogram: 1 0 0 0 0 0 0 0 0 0
Neighs:    6.84829e+06 ave 6.84829e+06 max 6.84829e+06 min
Histogram: 1 0 0 0 0 0 0 0 0 0
FullNghs:  1.14123e+07 ave 1.14123e+07 max 1.14123e+07 min
Histogram: 1 0 0 0 0 0 0 0 0 0

Total # of neighbors = 11412286
Ave neighs/atom = 570.6143
Neighbor list builds = 23
Dangerous builds = 0
unfix           nvt

# Increase timestep to normal
timestep        2.0

fix             nvt all nvt temp 423.15 423.15 100.0
run             15000
Generated 0 of 1 mixed pair_coeff terms from geometric mixing rule
Per MPI rank memory allocation (min/avg/max) = 38.38 | 38.38 | 38.38 Mbytes
   Step          Temp          PotEng         KinEng         TotEng         Press          Volume        Density          CPU      
      5000   421.57776     -80837.837      25131.608     -55706.229      38317.238      402592.25      6.2796667      0            
      6000   417.45371     -80731.088      24885.76      -55845.328      38388.561      402592.25      6.2796667      4.1645311    
      7000   424.30139     -80810.874      25293.972     -55516.902      38391.004      402592.25      6.2796667      8.3377161    
      8000   425.09691     -80773.381      25341.396     -55431.986      38418.903      402592.25      6.2796667      12.505879    
      9000   423.40166     -80661.687      25240.336     -55421.351      38562.865      402592.25      6.2796667      16.675792    
     10000   421.49989     -80625.021      25126.966     -55498.055      38559.247      402592.25      6.2796667      20.836889    
     11000   424.01686     -80884.064      25277.01      -55607.053      38389.223      402592.25      6.2796667      24.991583    
     12000   426.75232     -80814.999      25440.08      -55374.919      38382.133      402592.25      6.2796667      29.146943    
     13000   422.41396     -80676.199      25181.457     -55494.742      38511.584      402592.25      6.2796667      33.31088     
     14000   424.17037     -80627.503      25286.162     -55341.342      38486.859      402592.25      6.2796667      37.472797    
     15000   422.32988     -80465.652      25176.444     -55289.208      38654.988      402592.25      6.2796667      41.628775    
     16000   426.14322     -80631.305      25403.769     -55227.536      38516.073      402592.25      6.2796667      45.798826    
     17000   424.69931     -80851.632      25317.694     -55533.938      38356.089      402592.25      6.2796667      49.966817    
     18000   419.71371     -80603.694      25020.486     -55583.208      38544.85       402592.25      6.2796667      54.127563    
     19000   422.37542     -80699.094      25179.159     -55519.935      38492.685      402592.25      6.2796667      58.290774    
     20000   426.1858      -80928.081      25406.308     -55521.773      38295.322      402592.25      6.2796667      62.456355    
Loop time of 62.4564 on 1 procs for 15000 steps with 20000 atoms

Performance: 41.501 ns/day, 0.578 hours/ns, 240.168 timesteps/s, 4.803 Matom-step/s
100.0% CPU use with 1 MPI tasks x 1 OpenMP threads

MPI task timing breakdown:
Section |  min time  |  avg time  |  max time  |%varavg| %total
---------------------------------------------------------------
Pair    | 7.5594     | 7.5594     | 7.5594     |   0.0 | 12.10
Neigh   | 0.47038    | 0.47038    | 0.47038    |   0.0 |  0.75
Comm    | 0.37821    | 0.37821    | 0.37821    |   0.0 |  0.61
Output  | 0.005646   | 0.005646   | 0.005646   |   0.0 |  0.01
Modify  | 53.447     | 53.447     | 53.447     |   0.0 | 85.57
Other   |            | 0.5958     |            |       |  0.95

Nlocal:          20000 ave       20000 max       20000 min
Histogram: 1 0 0 0 0 0 0 0 0 0
Nghost:          32471 ave       32471 max       32471 min
Histogram: 1 0 0 0 0 0 0 0 0 0
Neighs:    6.85119e+06 ave 6.85119e+06 max 6.85119e+06 min
Histogram: 1 0 0 0 0 0 0 0 0 0
FullNghs:  1.14136e+07 ave 1.14136e+07 max 1.14136e+07 min
Histogram: 1 0 0 0 0 0 0 0 0 0

Total # of neighbors = 11413642
Ave neighs/atom = 570.6821
Neighbor list builds = 292
Dangerous builds = 0
unfix           nvt

# ========== Production (NVT) ==========
print "========== H100 GPU Production run =========="
========== H100 GPU Production run ==========

fix             nvt all nvt temp 423.15 423.15 100.0

# Reset RDF for production run
uncompute       myrdf
compute         myrdf all rdf 200 1 1 1 2 2 2 cutoff 12.0
unfix           rdfout
fix             rdfout all ave/time 100 10 1000 c_myrdf[*] file rdf.dat mode vector

run             50000
Generated 0 of 1 mixed pair_coeff terms from geometric mixing rule
Neighbor list info ...
  update: every = 1 steps, delay = 0 steps, check = yes
  max neighbors/atom: 2000, page size: 100000
  master list distance cutoff = 14
  ghost atom cutoff = 14
  binsize = 4, bins = 19 19 19
  3 neighbor lists, perpetual/occasional/extra = 2 1 0
  (1) pair lj/cut, perpetual
      attributes: full, newton off, kokkos_device
      pair build: full/bin/kk/device
      stencil: full/bin/3d
      bin: kk/device
  (2) pair table, perpetual, copy from (1)
      attributes: full, newton off, kokkos_device
      pair build: copy/kk/device
      stencil: none
      bin: none
  (3) compute rdf, occasional
      attributes: half, newton off
      pair build: half/bin/atomonly/newtoff
      stencil: full/bin/3d
      bin: standard
Per MPI rank memory allocation (min/avg/max) = 12.06 | 12.06 | 12.06 Mbytes
   Step          Temp          PotEng         KinEng         TotEng         Press          Volume        Density          CPU      
     20000   426.1858      -80928.081      25406.308     -55521.773      38295.322      402592.25      6.2796667      0            
     21000   423.14061     -80532.723      25224.775     -55307.949      38583.382      402592.25      6.2796667      4.1695522    
     22000   424.50095     -80789.681      25305.868     -55483.813      38460.741      402592.25      6.2796667      8.3372629    
     23000   422.91793     -80804.262      25211.5       -55592.762      38374.967      402592.25      6.2796667      12.507495    
     24000   421.95835     -80576.088      25154.296     -55421.792      38566.338      402592.25      6.2796667      16.671174    
     25000   424.506       -80600.474      25306.17      -55294.305      38549.544      402592.25      6.2796667      20.837926    
     26000   423.59779     -80558.859      25252.028     -55306.831      38593.005      402592.25      6.2796667      25.007878    
     27000   424.39241     -80565.155      25299.398     -55265.756      38604.688      402592.25      6.2796667      29.173477    
     28000   424.6123      -80603.66       25312.507     -55291.153      38535.086      402592.25      6.2796667      33.334839    
     29000   418.65189     -80380.471      24957.188     -55423.284      38656.027      402592.25      6.2796667      37.489516    
     30000   417.99948     -80762.264      24918.295     -55843.969      38335.839      402592.25      6.2796667      41.652825    
     31000   423.12295     -80603.84       25223.722     -55380.119      38657.966      402592.25      6.2796667      45.83288     
     32000   426.23761     -80831.916      25409.396     -55422.519      38396.796      402592.25      6.2796667      50.000555    
     33000   425.54895     -80656.335      25368.343     -55287.992      38523.617      402592.25      6.2796667      54.158068    
     34000   422.84123     -80900.231      25206.927     -55693.304      38271.008      402592.25      6.2796667      58.322699    
     35000   423.21801     -80518.087      25229.388     -55288.699      38632.412      402592.25      6.2796667      62.482484    
     36000   422.15381     -80664.101      25165.948     -55498.153      38560.342      402592.25      6.2796667      66.644698    
     37000   423.31881     -80440.991      25235.398     -55205.594      38634.768      402592.25      6.2796667      70.817128    
     38000   426.0476      -80507.935      25398.069     -55109.866      38658.199      402592.25      6.2796667      74.987788    
     39000   422.84183     -80655.353      25206.963     -55448.389      38518.412      402592.25      6.2796667      79.153021    
     40000   421.93836     -80879.087      25153.104     -55725.982      38310.157      402592.25      6.2796667      83.331888    
     41000   427.28095     -80440.906      25471.594     -54969.312      38713.825      402592.25      6.2796667      87.490874    
     42000   421.71011     -80717.538      25139.498     -55578.04       38417.568      402592.25      6.2796667      91.648997    
     43000   422.20271     -80875.306      25168.863     -55706.443      38258.987      402592.25      6.2796667      95.810598    
     44000   424.64941     -80857.909      25314.719     -55543.19       38350.423      402592.25      6.2796667      99.979389    
     45000   426.16361     -80593.87       25404.985     -55188.885      38536.677      402592.25      6.2796667      104.13802    
     46000   423.59285     -80580.306      25251.734     -55328.572      38595.981      402592.25      6.2796667      108.29348    
     47000   423.8172      -80497.537      25265.108     -55232.429      38607.662      402592.25      6.2796667      112.46093    
     48000   419.26622     -80882.037      24993.809     -55888.227      38217.655      402592.25      6.2796667      116.62512    
     49000   421.88934     -80800.868      25150.182     -55650.685      38389.825      402592.25      6.2796667      120.78588    
     50000   418.82059     -80636.202      24967.244     -55668.958      38447.528      402592.25      6.2796667      124.9574     
     51000   422.00229     -80717.446      25156.915     -55560.531      38496.669      402592.25      6.2796667      129.11083    
     52000   422.70604     -80705.051      25198.868     -55506.183      38477.362      402592.25      6.2796667      133.28073    
     53000   423.90921     -80706.274      25270.593     -55435.681      38410.551      402592.25      6.2796667      137.44732    
     54000   427.3666      -80853.507      25476.699     -55376.807      38346.513      402592.25      6.2796667      141.60735    
     55000   420.89873     -80605.353      25091.128     -55514.225      38503.215      402592.25      6.2796667      145.76629    
     56000   416.78471     -80879.066      24845.879     -56033.187      38236.444      402592.25      6.2796667      149.92718    
     57000   420.95995     -80601.717      25094.778     -55506.939      38479.777      402592.25      6.2796667      154.08476    
     58000   423.61509     -80499.691      25253.06      -55246.631      38642.12       402592.25      6.2796667      158.24446    
     59000   425.4374      -80755.236      25361.693     -55393.542      38398.407      402592.25      6.2796667      162.41017    
     60000   428.57077     -80573.437      25548.484     -55024.953      38591.151      402592.25      6.2796667      166.5752     
     61000   419.01088     -80957.464      24978.588     -55978.876      38221.029      402592.25      6.2796667      170.72785    
     62000   425.19729     -80636.393      25347.38      -55289.013      38528.664      402592.25      6.2796667      174.88989    
     63000   423.1478      -80643.451      25225.203     -55418.248      38533.559      402592.25      6.2796667      179.06231    
     64000   423.01723     -80710.845      25217.419     -55493.426      38452.313      402592.25      6.2796667      183.23754    
     65000   422.72653     -80383.555      25200.09      -55183.466      38704.718      402592.25      6.2796667      187.39146    
     66000   420.86761     -80546.129      25089.273     -55456.856      38597.362      402592.25      6.2796667      191.55964    
     67000   424.4149      -80500.554      25300.739     -55199.814      38602.126      402592.25      6.2796667      195.72602    
     68000   423.15799     -80874.053      25225.811     -55648.243      38373.16       402592.25      6.2796667      199.89369    
     69000   423.76077     -80520.525      25261.744     -55258.781      38649.52       402592.25      6.2796667      204.05956    
     70000   425.79671     -80977.786      25383.113     -55594.673      38391.759      402592.25      6.2796667      208.22988    
Loop time of 208.23 on 1 procs for 50000 steps with 20000 atoms

Performance: 41.493 ns/day, 0.578 hours/ns, 240.119 timesteps/s, 4.802 Matom-step/s
100.0% CPU use with 1 MPI tasks x 1 OpenMP threads

MPI task timing breakdown:
Section |  min time  |  avg time  |  max time  |%varavg| %total
---------------------------------------------------------------
Pair    | 25.165     | 25.165     | 25.165     |   0.0 | 12.09
Neigh   | 1.5703     | 1.5703     | 1.5703     |   0.0 |  0.75
Comm    | 1.2688     | 1.2688     | 1.2688     |   0.0 |  0.61
Output  | 0.01916    | 0.01916    | 0.01916    |   0.0 |  0.01
Modify  | 178.22     | 178.22     | 178.22     |   0.0 | 85.59
Other   |            | 1.985      |            |       |  0.95

Nlocal:          20000 ave       20000 max       20000 min
Histogram: 1 0 0 0 0 0 0 0 0 0
Nghost:          32469 ave       32469 max       32469 min
Histogram: 1 0 0 0 0 0 0 0 0 0
Neighs:    6.85254e+06 ave 6.85254e+06 max 6.85254e+06 min
Histogram: 1 0 0 0 0 0 0 0 0 0
FullNghs:  1.14168e+07 ave 1.14168e+07 max 1.14168e+07 min
Histogram: 1 0 0 0 0 0 0 0 0 0

Total # of neighbors = 11416760
Ave neighs/atom = 570.838
Neighbor list builds = 976
Dangerous builds = 0
unfix           nvt

# ========== Finalize ==========
print "========== H100 GPU Simulation completed =========="
========== H100 GPU Simulation completed ==========

# Write restart file for next iteration (use fixed name to avoid shell command issues)
write_restart   outputs/restart.0.data
System init for write_restart ...
Generated 0 of 1 mixed pair_coeff terms from geometric mixing rule

# Final statistics
variable        density_final equal density
variable        temp_final equal temp
variable        press_final equal press

print "========================================="
=========================================
print "FINAL RESULTS:"
FINAL RESULTS:
print "  Density:     ${density_final} g/cm^3"
  Density:     6.27966666056994 g/cm^3
print "  Temperature: ${temp_final} K"
  Temperature: 425.796711001022 K
print "  Pressure:    ${press_final} bar"
  Pressure:    38391.7590745996 bar
print "========================================="
=========================================

print "RDF written to rdf.dat"
RDF written to rdf.dat
print "Restart file written to outputs/restart.0.data"
Restart file written to outputs/restart.0.data
Total wall time: 0:04:46
