LAMMPS (22 Jul 2025 - Update 2)
KOKKOS mode with Kokkos version 4.6.2 is enabled
  will use up to 1 GPU(s) per node
  using 1 OpenMP thread(s) per MPI task
package kokkos
# H100 GPU-Optimized LAMMPS input for EPSR simulation of EGaIn eutectic alloy
# Composition: Ga0.858In0.142
# Temperature: 150Â°C (423.15 K)
# Potential: LJ + Empirical Potential (table)
# GPU: Using KOKKOS for H100 (Hopper architecture)

# ========== KOKKOS Initialization (CRITICAL: Must be first) ==========
# CRITICAL FIX: newton off prevents KOKKOS errors on H100
# Note: pair_style table does not have /kk support, but will run on CPU while LJ runs on GPU
package         kokkos neigh full newton off

# ========== Initialization ==========
units           real
atom_style      atomic
boundary        p p p

# ========== Force field ==========
# Use hybrid/overlay to combine LJ (GPU-accelerated) and table (CPU)
# The -sf kk flag will automatically use lj/cut/kk while table runs on CPU
# NOTE: pair_style must be defined BEFORE read_data if data file contains Pair Coeffs section
pair_style      hybrid/overlay lj/cut 12.0 table linear 200

# ========== Read structure ==========
# Use LJ-equilibrated structure as initial configuration (more stable)
shell           mkdir -p outputs
# nocoeff skips Pair Coeffs section which is incompatible with hybrid/overlay
read_data       outputs/final_structure_lj_H100.data nocoeff
Reading data file ...
  orthogonal box = (0 0 0) to (73.839453 73.839453 73.839453)
  1 by 1 by 1 MPI processor grid
WARNING: Pair style lj/cut/kk in data file differs from currently defined pair style zero (src/read_data.cpp:811)
  reading atoms ...
  20000 atoms
  reading velocities ...
  20000 velocities
  read_data CPU = 0.097 seconds

# LJ potential (GPU-accelerated with -sf kk flag)
pair_coeff      1 1 lj/cut 0.430 2.70    # Ga-Ga
pair_coeff      2 2 lj/cut 0.430 3.11    # In-In
pair_coeff      1 2 lj/cut 0.430 2.905   # Ga-In

# Empirical potential (from table files - runs on CPU)
# Table format: r, U(r), F(r)
pair_coeff      1 1 table data/ep_GaGa.table EP_GAGA 12.0
pair_coeff      2 2 table data/ep_InIn.table EP_ININ 12.0
pair_coeff      1 2 table data/ep_GaIn.table EP_GAIN 12.0

# ========== Settings ==========
mass            1 69.723    # Ga
mass            2 114.818   # In

# Optimized neighbor list for GPU
neighbor        2.0 bin
neigh_modify    delay 0 every 1 check yes binsize 4.0

# ========== Initial velocity ==========
# Re-initialize velocities for this temperature
velocity        all create 423.15 12345 dist gaussian

# ========== Thermodynamic output ==========
thermo          1000
thermo_style    custom step temp pe ke etotal press vol density cpu

# ========== Quick minimization for stability ==========
print "========== Energy Minimization =========="
========== Energy Minimization ==========
minimize        1.0e-4 1.0e-6 1000 10000
Generated 0 of 1 mixed pair_coeff terms from geometric mixing rule
Neighbor list info ...
  update: every = 1 steps, delay = 0 steps, check = yes
  max neighbors/atom: 2000, page size: 100000
  master list distance cutoff = 14
  ghost atom cutoff = 14
  binsize = 4, bins = 19 19 19
  2 neighbor lists, perpetual/occasional/extra = 2 0 0
  (1) pair lj/cut, perpetual
      attributes: full, newton off, kokkos_device
      pair build: full/bin/kk/device
      stencil: full/bin/3d
      bin: kk/device
  (2) pair table, perpetual, copy from (1)
      attributes: full, newton off, kokkos_device
      pair build: copy/kk/device
      stencil: none
      bin: none
WARNING: Fix MINIMIZE/kk not compatible with sending data in Kokkos communication (src/KOKKOS/comm_kokkos.cpp:767)
WARNING: Fix with atom-based arrays not compatible with sending data in Kokkos communication, switching to classic exchange/border communication (src/KOKKOS/comm_kokkos.cpp:780)
WARNING: Fix MINIMIZE/kk not compatible with Kokkos sorting on device (src/KOKKOS/atom_kokkos.cpp:212)
WARNING: Fix with atom-based arrays not compatible with Kokkos sorting on device, switching to classic host sorting (src/KOKKOS/atom_kokkos.cpp:218)
Per MPI rank memory allocation (min/avg/max) = 13.71 | 13.71 | 13.71 Mbytes
   Step          Temp          PotEng         KinEng         TotEng         Press          Volume        Density          CPU      
         0   423.15        -41656.468      25225.334     -16431.134      26889.529      402592.25      6.2796667      0            
       126   423.15        -65387.723      25225.334     -40162.389      6464.8613      402592.25      6.2796667      0.19416191   
Loop time of 0.194168 on 1 procs for 126 steps with 20000 atoms

99.8% CPU use with 1 MPI tasks x 1 OpenMP threads

Minimization stats:
  Stopping criterion = energy tolerance
  Energy initial, next-to-last, final = 
     -41656.4679952413  -65381.5583901425  -65387.7232667959
  Force two-norm initial, final = 1548.8099 17.041214
  Force max component initial, final = 43.183702 3.8012039
  Final line search alpha, max atom move = 0.024764852 0.094136251
  Iterations, force evaluations = 126 129

MPI task timing breakdown:
Section |  min time  |  avg time  |  max time  |%varavg| %total
---------------------------------------------------------------
Pair    | 0.1584     | 0.1584     | 0.1584     |   0.0 | 81.58
Neigh   | 0.0073075  | 0.0073075  | 0.0073075  |   0.0 |  3.76
Comm    | 0.0078814  | 0.0078814  | 0.0078814  |   0.0 |  4.06
Output  | 0          | 0          | 0          |   0.0 |  0.00
Modify  | 0          | 0          | 0          |   0.0 |  0.00
Other   |            | 0.02058    |            |       | 10.60

Nlocal:          20000 ave       20000 max       20000 min
Histogram: 1 0 0 0 0 0 0 0 0 0
Nghost:          32421 ave       32421 max       32421 min
Histogram: 1 0 0 0 0 0 0 0 0 0
Neighs:              0 ave           0 max           0 min
Histogram: 1 0 0 0 0 0 0 0 0 0
FullNghs:   1.1392e+07 ave  1.1392e+07 max  1.1392e+07 min
Histogram: 1 0 0 0 0 0 0 0 0 0

Total # of neighbors = 11391970
Ave neighs/atom = 569.5985
Neighbor list builds = 6
Dangerous builds = 0
reset_timestep  0

# ========== RDF computation ==========
# Compute total and partial pair distribution functions
compute         myrdf all rdf 200 1 1 1 2 2 2 cutoff 12.0

# Time-average RDF output
fix             rdfout all ave/time 100 10 1000 c_myrdf[*] file rdf.dat mode vector

# ========== Equilibration (NVT) ==========
print "========== H100 GPU Equilibration =========="
========== H100 GPU Equilibration ==========

# Start with small timestep for stability
timestep        0.5

fix             nvt all nvt temp 423.15 423.15 100.0
run             5000
Generated 0 of 1 mixed pair_coeff terms from geometric mixing rule
Neighbor list info ...
  update: every = 1 steps, delay = 0 steps, check = yes
  max neighbors/atom: 2000, page size: 100000
  master list distance cutoff = 14
  ghost atom cutoff = 14
  binsize = 4, bins = 19 19 19
  3 neighbor lists, perpetual/occasional/extra = 2 1 0
  (1) pair lj/cut, perpetual
      attributes: full, newton off, kokkos_device
      pair build: full/bin/kk/device
      stencil: full/bin/3d
      bin: kk/device
  (2) pair table, perpetual, copy from (1)
      attributes: full, newton off, kokkos_device
      pair build: copy/kk/device
      stencil: none
      bin: none
  (3) compute rdf, occasional
      attributes: half, newton off
      pair build: half/bin/atomonly/newtoff
      stencil: full/bin/3d
      bin: standard
Per MPI rank memory allocation (min/avg/max) = 12.06 | 12.06 | 12.06 Mbytes
   Step          Temp          PotEng         KinEng         TotEng         Press          Volume        Density          CPU      
         0   423.15        -65387.723      25225.334     -40162.389      6464.8613      402592.25      6.2796667      0            
      1000   323.47138     -48268.865      19283.17      -28985.694      20601.574      402592.25      6.2796667      2.8747353    
      2000   431.50557     -42228.44       25723.436     -16505.004      26447.089      402592.25      6.2796667      5.9623578    
      3000   424.05931     -42373.621      25279.541     -17094.08       26293.591      402592.25      6.2796667      9.0350078    
      4000   423.08171     -42229.078      25221.263     -17007.815      26431.949      402592.25      6.2796667      12.116847    
      5000   421.64937     -41918.91       25135.877     -16783.034      26666.706      402592.25      6.2796667      15.186646    
Loop time of 15.1867 on 1 procs for 5000 steps with 20000 atoms

Performance: 14.223 ns/day, 1.687 hours/ns, 329.236 timesteps/s, 6.585 Matom-step/s
99.9% CPU use with 1 MPI tasks x 1 OpenMP threads

MPI task timing breakdown:
Section |  min time  |  avg time  |  max time  |%varavg| %total
---------------------------------------------------------------
Pair    | 2.5013     | 2.5013     | 2.5013     |   0.0 | 16.47
Neigh   | 0.037357   | 0.037357   | 0.037357   |   0.0 |  0.25
Comm    | 0.047846   | 0.047846   | 0.047846   |   0.0 |  0.32
Output  | 0.0017537  | 0.0017537  | 0.0017537  |   0.0 |  0.01
Modify  | 12.427     | 12.427     | 12.427     |   0.0 | 81.83
Other   |            | 0.1715     |            |       |  1.13

Nlocal:          20000 ave       20000 max       20000 min
Histogram: 1 0 0 0 0 0 0 0 0 0
Nghost:          32466 ave       32466 max       32466 min
Histogram: 1 0 0 0 0 0 0 0 0 0
Neighs:    6.83998e+06 ave 6.83998e+06 max 6.83998e+06 min
Histogram: 1 0 0 0 0 0 0 0 0 0
FullNghs:  1.14002e+07 ave 1.14002e+07 max 1.14002e+07 min
Histogram: 1 0 0 0 0 0 0 0 0 0

Total # of neighbors = 11400222
Ave neighs/atom = 570.0111
Neighbor list builds = 23
Dangerous builds = 0
unfix           nvt

# Increase timestep to normal
timestep        2.0

fix             nvt all nvt temp 423.15 423.15 100.0
run             15000
Generated 0 of 1 mixed pair_coeff terms from geometric mixing rule
Per MPI rank memory allocation (min/avg/max) = 38.39 | 38.39 | 38.39 Mbytes
   Step          Temp          PotEng         KinEng         TotEng         Press          Volume        Density          CPU      
      5000   421.64937     -41918.91       25135.877     -16783.034      26666.706      402592.25      6.2796667      0            
      6000   421.48374     -41766.791      25126.003     -16640.789      26805.031      402592.25      6.2796667      4.1425796    
      7000   419.99966     -41725.445      25037.532     -16687.912      26848.654      402592.25      6.2796667      8.2963365    
      8000   418.93651     -41825.698      24974.155     -16851.543      26750.801      402592.25      6.2796667      12.454618    
      9000   429.64295     -41763.333      25612.4       -16150.933      26853.549      402592.25      6.2796667      16.614811    
     10000   422.49357     -42004.531      25186.202     -16818.329      26596.035      402592.25      6.2796667      20.765843    
     11000   422.61748     -41755.144      25193.589     -16561.555      26808.338      402592.25      6.2796667      24.91976     
     12000   423.52123     -41825.751      25247.464     -16578.286      26757.105      402592.25      6.2796667      29.083108    
     13000   424.40334     -41954.626      25300.05      -16654.576      26663.952      402592.25      6.2796667      33.245083    
     14000   422.51714     -41757.601      25187.607     -16569.994      26813.46       402592.25      6.2796667      37.397379    
     15000   429.74236     -41929.715      25618.326     -16311.389      26728.149      402592.25      6.2796667      41.5549      
     16000   425.30349     -41576.989      25353.71      -16223.279      26968.232      402592.25      6.2796667      45.699855    
     17000   421.22351     -41562.319      25110.49      -16451.829      26981.796      402592.25      6.2796667      49.848127    
     18000   422.00102     -41653.134      25156.84      -16496.294      26911.714      402592.25      6.2796667      53.996957    
     19000   424.5542      -41952.778      25309.043     -16643.735      26689.139      402592.25      6.2796667      58.154062    
     20000   424.18714     -41572.804      25287.162     -16285.642      26978.343      402592.25      6.2796667      62.308086    
Loop time of 62.3081 on 1 procs for 15000 steps with 20000 atoms

Performance: 41.600 ns/day, 0.577 hours/ns, 240.739 timesteps/s, 4.815 Matom-step/s
100.0% CPU use with 1 MPI tasks x 1 OpenMP threads

MPI task timing breakdown:
Section |  min time  |  avg time  |  max time  |%varavg| %total
---------------------------------------------------------------
Pair    | 7.5276     | 7.5276     | 7.5276     |   0.0 | 12.08
Neigh   | 0.4626     | 0.4626     | 0.4626     |   0.0 |  0.74
Comm    | 0.36753    | 0.36753    | 0.36753    |   0.0 |  0.59
Output  | 0.005127   | 0.005127   | 0.005127   |   0.0 |  0.01
Modify  | 53.342     | 53.342     | 53.342     |   0.0 | 85.61
Other   |            | 0.603      |            |       |  0.97

Nlocal:          20000 ave       20000 max       20000 min
Histogram: 1 0 0 0 0 0 0 0 0 0
Nghost:          32489 ave       32489 max       32489 min
Histogram: 1 0 0 0 0 0 0 0 0 0
Neighs:    6.84339e+06 ave 6.84339e+06 max 6.84339e+06 min
Histogram: 1 0 0 0 0 0 0 0 0 0
FullNghs:  1.13976e+07 ave 1.13976e+07 max 1.13976e+07 min
Histogram: 1 0 0 0 0 0 0 0 0 0

Total # of neighbors = 11397572
Ave neighs/atom = 569.8786
Neighbor list builds = 292
Dangerous builds = 0
unfix           nvt

# ========== Production (NVT) ==========
print "========== H100 GPU Production run =========="
========== H100 GPU Production run ==========

fix             nvt all nvt temp 423.15 423.15 100.0

# Reset RDF for production run
uncompute       myrdf
compute         myrdf all rdf 200 1 1 1 2 2 2 cutoff 12.0
unfix           rdfout
fix             rdfout all ave/time 100 10 1000 c_myrdf[*] file rdf.dat mode vector

run             100000
Generated 0 of 1 mixed pair_coeff terms from geometric mixing rule
Neighbor list info ...
  update: every = 1 steps, delay = 0 steps, check = yes
  max neighbors/atom: 2000, page size: 100000
  master list distance cutoff = 14
  ghost atom cutoff = 14
  binsize = 4, bins = 19 19 19
  3 neighbor lists, perpetual/occasional/extra = 2 1 0
  (1) pair lj/cut, perpetual
      attributes: full, newton off, kokkos_device
      pair build: full/bin/kk/device
      stencil: full/bin/3d
      bin: kk/device
  (2) pair table, perpetual, copy from (1)
      attributes: full, newton off, kokkos_device
      pair build: copy/kk/device
      stencil: none
      bin: none
  (3) compute rdf, occasional
      attributes: half, newton off
      pair build: half/bin/atomonly/newtoff
      stencil: full/bin/3d
      bin: standard
Per MPI rank memory allocation (min/avg/max) = 12.07 | 12.07 | 12.07 Mbytes
   Step          Temp          PotEng         KinEng         TotEng         Press          Volume        Density          CPU      
     20000   424.18714     -41572.804      25287.162     -16285.642      26978.343      402592.25      6.2796667      0            
     21000   422.96392     -41626.237      25214.241     -16411.995      26920.147      402592.25      6.2796667      4.1740629    
     22000   423.15703     -41703.099      25225.753     -16477.346      26856.838      402592.25      6.2796667      8.3238631    
     23000   422.23169     -41660.069      25170.591     -16489.478      26893.605      402592.25      6.2796667      12.48036     
     24000   426.18658     -41502.107      25406.354     -16095.753      27051.389      402592.25      6.2796667      16.640434    
     25000   419.28087     -41593.093      24994.683     -16598.41       26912.626      402592.25      6.2796667      20.80138     
     26000   424.43456     -41928.495      25301.911     -16626.584      26672.25       402592.25      6.2796667      24.962878    
     27000   423.5455      -41834.99       25248.911     -16586.078      26756.151      402592.25      6.2796667      29.11214     
     28000   426.74478     -41565.145      25439.63      -16125.514      26993.083      402592.25      6.2796667      33.276148    
     29000   425.3437      -41710.255      25356.108     -16354.147      26883.931      402592.25      6.2796667      37.430703    
     30000   424.6244      -41692.603      25313.228     -16379.375      26864.52       402592.25      6.2796667      41.586278    
     31000   422.92793     -41627.091      25212.096     -16414.995      26916.544      402592.25      6.2796667      45.739393    
     32000   422.07521     -41824.147      25161.263     -16662.884      26766.165      402592.25      6.2796667      49.89972     
     33000   417.02319     -41779.064      24860.095     -16918.969      26754.22       402592.25      6.2796667      54.056134    
     34000   424.83372     -41757.071      25325.706     -16431.365      26830.41       402592.25      6.2796667      58.206998    
     35000   423.75098     -41634.991      25261.16      -16373.831      26925.111      402592.25      6.2796667      62.355301    
     36000   422.63735     -41777.098      25194.774     -16582.325      26809.124      402592.25      6.2796667      66.513561    
     37000   424.84998     -41680.279      25326.676     -16353.603      26905.974      402592.25      6.2796667      70.666891    
     38000   424.80379     -41758.501      25323.922     -16434.579      26817.062      402592.25      6.2796667      74.832231    
     39000   423.52569     -41669.68       25247.73      -16421.95       26898.08       402592.25      6.2796667      78.984544    
     40000   425.21824     -41923.678      25348.629     -16575.05       26692.839      402592.25      6.2796667      83.129739    
     41000   421.5085      -41739.216      25127.479     -16611.736      26805.736      402592.25      6.2796667      87.287083    
     42000   426.56939     -41720.94       25429.175     -16291.764      26876.85       402592.25      6.2796667      91.443873    
     43000   420.60645     -41532.005      25073.705     -16458.3        26996.477      402592.25      6.2796667      95.593101    
     44000   422.50529     -41725.548      25186.901     -16538.647      26829.884      402592.25      6.2796667      99.745885    
     45000   423.89885     -41803.806      25269.976     -16533.83       26777.315      402592.25      6.2796667      103.90452    
     46000   422.49617     -41816.227      25186.357     -16629.87       26765.127      402592.25      6.2796667      108.05543    
     47000   423.00223     -41697.457      25216.525     -16480.932      26870.007      402592.25      6.2796667      112.21672    
     48000   421.28238     -41753.236      25113.999     -16639.237      26808.911      402592.25      6.2796667      116.38092    
     49000   426.43317     -41798.339      25421.054     -16377.284      26810.075      402592.25      6.2796667      120.54323    
     50000   422.93745     -41767.653      25212.663     -16554.99       26809.166      402592.25      6.2796667      124.69968    
     51000   425.14756     -41448.188      25344.415     -16103.773      27088.616      402592.25      6.2796667      128.86027    
     52000   424.40707     -41798.332      25300.272     -16498.059      26800.247      402592.25      6.2796667      133.01198    
     53000   426.53616     -41698.977      25427.194     -16271.783      26887.876      402592.25      6.2796667      137.16119    
     54000   424.41653     -41686.115      25300.836     -16385.279      26880.316      402592.25      6.2796667      141.31337    
     55000   422.58499     -41657.177      25191.652     -16465.525      26890.136      402592.25      6.2796667      145.47516    
     56000   423.83755     -41739.911      25266.321     -16473.589      26809.463      402592.25      6.2796667      149.62424    
     57000   418.77139     -41755.471      24964.311     -16791.16       26785.361      402592.25      6.2796667      153.77032    
     58000   422.09693     -41738.444      25162.557     -16575.887      26831.745      402592.25      6.2796667      157.92256    
     59000   423.96729     -41853.509      25274.055     -16579.453      26742.232      402592.25      6.2796667      162.0774     
     60000   426.60645     -41878.972      25431.384     -16447.588      26731.304      402592.25      6.2796667      166.24233    
     61000   423.23446     -41971.5        25230.369     -16741.131      26636.066      402592.25      6.2796667      170.39782    
     62000   424.49826     -41667.647      25305.708     -16361.939      26897.674      402592.25      6.2796667      174.55454    
     63000   422.41575     -41875.908      25181.563     -16694.345      26721.567      402592.25      6.2796667      178.71108    
     64000   423.97766     -41923.758      25274.673     -16649.085      26665.909      402592.25      6.2796667      182.8768     
     65000   419.48425     -41807.501      25006.807     -16800.695      26770.223      402592.25      6.2796667      187.03283    
     66000   418.38444     -41764.152      24941.244     -16822.908      26781.514      402592.25      6.2796667      191.18515    
     67000   425.81126     -41687.771      25383.98      -16303.791      26894.714      402592.25      6.2796667      195.3485     
     68000   423.17455     -41550.804      25226.798     -16324.006      26981.969      402592.25      6.2796667      199.5106     
     69000   421.97803     -41745.318      25155.469     -16589.849      26821.451      402592.25      6.2796667      203.66636    
     70000   425.52209     -41806.208      25366.742     -16439.466      26785.078      402592.25      6.2796667      207.82488    
     71000   422.3564      -41829.921      25178.025     -16651.896      26761.413      402592.25      6.2796667      211.97507    
     72000   424.26532     -41756.005      25291.822     -16464.183      26821.255      402592.25      6.2796667      216.11843    
     73000   420.29962     -41970.59       25055.414     -16915.176      26602.743      402592.25      6.2796667      220.27644    
     74000   423.99769     -41750.226      25275.868     -16474.358      26824.397      402592.25      6.2796667      224.43073    
     75000   426.45268     -41643.362      25422.218     -16221.144      26937.299      402592.25      6.2796667      228.59289    
     76000   423.94722     -41989.497      25272.859     -16716.638      26617.516      402592.25      6.2796667      232.76279    
     77000   421.381       -41712.641      25119.878     -16592.762      26859.179      402592.25      6.2796667      236.92959    
     78000   420.67267     -41666.251      25077.653     -16588.599      26872.914      402592.25      6.2796667      241.0838     
     79000   422.8664      -41964.996      25208.428     -16756.568      26656.291      402592.25      6.2796667      245.23864    
     80000   419.37287     -41824.914      25000.167     -16824.747      26744.748      402592.25      6.2796667      249.38858    
     81000   427.38765     -41460.476      25477.954     -15982.523      27088.89       402592.25      6.2796667      253.55164    
     82000   425.30345     -42010.858      25353.708     -16657.149      26616.547      402592.25      6.2796667      257.70478    
     83000   423.36549     -41886.767      25238.18      -16648.587      26690.959      402592.25      6.2796667      261.85779    
     84000   417.70966     -41948.198      24901.018     -17047.181      26636.969      402592.25      6.2796667      266.02174    
     85000   420.97527     -41834.273      25095.691     -16738.582      26743.225      402592.25      6.2796667      270.18581    
     86000   422.43344     -41906.414      25182.618     -16723.797      26675.104      402592.25      6.2796667      274.35358    
     87000   421.75592     -41724.797      25142.229     -16582.568      26828.355      402592.25      6.2796667      278.51142    
     88000   421.76798     -41773.637      25142.947     -16630.689      26771.7        402592.25      6.2796667      282.67378    
     89000   419.41322     -41769.593      25002.572     -16767.021      26759.491      402592.25      6.2796667      286.82229    
     90000   421.3784      -41712.235      25119.723     -16592.511      26855.484      402592.25      6.2796667      290.99404    
     91000   425.07193     -41730.603      25339.907     -16390.696      26854.758      402592.25      6.2796667      295.16088    
     92000   425.61822     -41637.057      25372.473     -16264.584      26952.72       402592.25      6.2796667      299.31159    
     93000   423.36159     -41749.492      25237.948     -16511.544      26835.222      402592.25      6.2796667      303.4616     
     94000   425.37969     -41733.609      25358.253     -16375.356      26864.611      402592.25      6.2796667      307.61968    
     95000   423.21685     -41608.835      25229.319     -16379.516      26965.09       402592.25      6.2796667      311.77917    
     96000   417.42432     -41782.842      24884.008     -16898.835      26779.98       402592.25      6.2796667      315.93371    
     97000   418.10525     -41687.631      24924.601     -16763.031      26850.02       402592.25      6.2796667      320.10136    
     98000   422.37503     -41852.092      25179.136     -16672.956      26739.429      402592.25      6.2796667      324.26068    
     99000   423.32687     -41733.908      25235.878     -16498.029      26848.503      402592.25      6.2796667      328.42215    
    100000   420.59171     -41633.421      25072.826     -16560.595      26922.167      402592.25      6.2796667      332.57316    
    101000   420.51179     -41987.268      25068.062     -16919.206      26611.203      402592.25      6.2796667      336.72231    
    102000   421.72636     -41883.52       25140.466     -16743.054      26708.575      402592.25      6.2796667      340.8775     
    103000   419.17766     -41872.03       24988.53      -16883.5        26685.625      402592.25      6.2796667      345.05125    
    104000   426.94804     -41767.683      25451.747     -16315.935      26817.452      402592.25      6.2796667      349.20569    
    105000   418.3155      -41481.606      24937.134     -16544.472      27029.859      402592.25      6.2796667      353.36538    
    106000   421.61709     -41712.282      25133.953     -16578.33       26865.747      402592.25      6.2796667      357.51568    
    107000   420.11373     -41931.999      25044.332     -16887.667      26625.509      402592.25      6.2796667      361.67439    
    108000   421.29        -41601.033      25114.454     -16486.579      26922.113      402592.25      6.2796667      365.83904    
    109000   427.55798     -41917.928      25488.108     -16429.82       26714.717      402592.25      6.2796667      370.00655    
    110000   423.18323     -41710.948      25227.315     -16483.633      26848.346      402592.25      6.2796667      374.16682    
    111000   422.22149     -41766.371      25169.983     -16596.388      26797.199      402592.25      6.2796667      378.33838    
    112000   419.04236     -41987.109      24980.464     -17006.645      26617.351      402592.25      6.2796667      382.50304    
    113000   425.10243     -42125.609      25341.725     -16783.884      26532.074      402592.25      6.2796667      386.66158    
    114000   424.04509     -41781.59       25278.693     -16502.897      26809.669      402592.25      6.2796667      390.825      
    115000   423.59941     -41607.308      25252.125     -16355.183      26954.762      402592.25      6.2796667      394.97582    
    116000   418.96883     -41617.972      24976.081     -16641.891      26903.498      402592.25      6.2796667      399.14767    
    117000   421.99486     -41852.698      25156.473     -16696.225      26718.718      402592.25      6.2796667      403.3025     
    118000   427.88979     -41640.679      25507.888     -16132.79       26957.929      402592.25      6.2796667      407.46016    
    119000   421.2602      -41681.546      25112.677     -16568.869      26892.136      402592.25      6.2796667      411.62203    
    120000   422.22228     -41784.669      25170.03      -16614.639      26770.614      402592.25      6.2796667      415.79372    
Loop time of 415.794 on 1 procs for 100000 steps with 20000 atoms

Performance: 41.559 ns/day, 0.577 hours/ns, 240.504 timesteps/s, 4.810 Matom-step/s
100.0% CPU use with 1 MPI tasks x 1 OpenMP threads

MPI task timing breakdown:
Section |  min time  |  avg time  |  max time  |%varavg| %total
---------------------------------------------------------------
Pair    | 50.505     | 50.505     | 50.505     |   0.0 | 12.15
Neigh   | 3.0731     | 3.0731     | 3.0731     |   0.0 |  0.74
Comm    | 2.4622     | 2.4622     | 2.4622     |   0.0 |  0.59
Output  | 0.03445    | 0.03445    | 0.03445    |   0.0 |  0.01
Modify  | 355.7      | 355.7      | 355.7      |   0.0 | 85.55
Other   |            | 4.019      |            |       |  0.97

Nlocal:          20000 ave       20000 max       20000 min
Histogram: 1 0 0 0 0 0 0 0 0 0
Nghost:          32421 ave       32421 max       32421 min
Histogram: 1 0 0 0 0 0 0 0 0 0
Neighs:    6.84382e+06 ave 6.84382e+06 max 6.84382e+06 min
Histogram: 1 0 0 0 0 0 0 0 0 0
FullNghs:  1.13986e+07 ave 1.13986e+07 max 1.13986e+07 min
Histogram: 1 0 0 0 0 0 0 0 0 0

Total # of neighbors = 11398632
Ave neighs/atom = 569.9316
Neighbor list builds = 1948
Dangerous builds = 0
unfix           nvt

# ========== Finalize ==========
print "========== H100 GPU Simulation completed =========="
========== H100 GPU Simulation completed ==========

# Write restart file for next iteration (use fixed name to avoid shell command issues)
write_restart   outputs/restart.0.data
System init for write_restart ...
Generated 0 of 1 mixed pair_coeff terms from geometric mixing rule

# Final statistics
variable        density_final equal density
variable        temp_final equal temp
variable        press_final equal press

print "========================================="
=========================================
print "FINAL RESULTS:"
FINAL RESULTS:
print "  Density:     ${density_final} g/cm^3"
  Density:     6.27966666056993 g/cm^3
print "  Temperature: ${temp_final} K"
  Temperature: 422.222280984586 K
print "  Pressure:    ${press_final} bar"
  Pressure:    26770.6143215608 bar
print "========================================="
=========================================

print "RDF written to rdf.dat"
RDF written to rdf.dat
print "Restart file written to outputs/restart.0.data"
Restart file written to outputs/restart.0.data
Total wall time: 0:08:14
