LAMMPS (22 Jul 2025 - Update 2)
KOKKOS mode with Kokkos version 4.6.2 is enabled
  will use up to 1 GPU(s) per node
  using 1 OpenMP thread(s) per MPI task
package kokkos
# H100 GPU-Optimized LAMMPS input for EPSR simulation of EGaIn eutectic alloy
# Composition: Ga0.858In0.142
# Temperature: 150Â°C (423.15 K)
# Potential: LJ + Empirical Potential (table)
# GPU: Using KOKKOS for H100 (Hopper architecture)

# ========== KOKKOS Initialization (CRITICAL: Must be first) ==========
# CRITICAL FIX: newton off prevents KOKKOS errors on H100
# Note: pair_style table does not have /kk support, but will run on CPU while LJ runs on GPU
package         kokkos neigh full newton off

# ========== Initialization ==========
units           real
atom_style      atomic
boundary        p p p

# ========== Force field ==========
# Use hybrid/overlay to combine LJ (GPU-accelerated) and table (CPU)
# The -sf kk flag will automatically use lj/cut/kk while table runs on CPU
# NOTE: pair_style must be defined BEFORE read_data if data file contains Pair Coeffs section
pair_style      hybrid/overlay lj/cut 12.0 table linear 200

# ========== Read structure ==========
# Use LJ-equilibrated structure as initial configuration (more stable)
shell           mkdir -p outputs
# nocoeff skips Pair Coeffs section which is incompatible with hybrid/overlay
read_data       outputs/final_structure_lj_H100.data nocoeff
Reading data file ...
  orthogonal box = (0 0 0) to (73.839453 73.839453 73.839453)
  1 by 1 by 1 MPI processor grid
WARNING: Pair style lj/cut/kk in data file differs from currently defined pair style zero (src/read_data.cpp:811)
  reading atoms ...
  20000 atoms
  reading velocities ...
  20000 velocities
  read_data CPU = 0.097 seconds

# LJ potential (GPU-accelerated with -sf kk flag)
pair_coeff      1 1 lj/cut 0.430 2.70    # Ga-Ga
pair_coeff      2 2 lj/cut 0.430 3.11    # In-In
pair_coeff      1 2 lj/cut 0.430 2.905   # Ga-In

# Empirical potential (from table files - runs on CPU)
# Table format: r, U(r), F(r)
pair_coeff      1 1 table data/ep_GaGa.table EP_GAGA 12.0
pair_coeff      2 2 table data/ep_InIn.table EP_ININ 12.0
pair_coeff      1 2 table data/ep_GaIn.table EP_GAIN 12.0

# ========== Settings ==========
mass            1 69.723    # Ga
mass            2 114.818   # In

# Optimized neighbor list for GPU
neighbor        2.0 bin
neigh_modify    delay 0 every 1 check yes binsize 4.0

# ========== Initial velocity ==========
# Re-initialize velocities for this temperature
velocity        all create 423.15 12345 dist gaussian

# ========== Thermodynamic output ==========
thermo          1000
thermo_style    custom step temp pe ke etotal press vol density cpu

# ========== Quick minimization for stability ==========
print "========== Energy Minimization =========="
========== Energy Minimization ==========
minimize        1.0e-4 1.0e-6 1000 10000
Generated 0 of 1 mixed pair_coeff terms from geometric mixing rule
Neighbor list info ...
  update: every = 1 steps, delay = 0 steps, check = yes
  max neighbors/atom: 2000, page size: 100000
  master list distance cutoff = 14
  ghost atom cutoff = 14
  binsize = 4, bins = 19 19 19
  2 neighbor lists, perpetual/occasional/extra = 2 0 0
  (1) pair lj/cut, perpetual
      attributes: full, newton off, kokkos_device
      pair build: full/bin/kk/device
      stencil: full/bin/3d
      bin: kk/device
  (2) pair table, perpetual, copy from (1)
      attributes: full, newton off, kokkos_device
      pair build: copy/kk/device
      stencil: none
      bin: none
WARNING: Fix MINIMIZE/kk not compatible with sending data in Kokkos communication (src/KOKKOS/comm_kokkos.cpp:767)
WARNING: Fix with atom-based arrays not compatible with sending data in Kokkos communication, switching to classic exchange/border communication (src/KOKKOS/comm_kokkos.cpp:780)
WARNING: Fix MINIMIZE/kk not compatible with Kokkos sorting on device (src/KOKKOS/atom_kokkos.cpp:212)
WARNING: Fix with atom-based arrays not compatible with Kokkos sorting on device, switching to classic host sorting (src/KOKKOS/atom_kokkos.cpp:218)
Per MPI rank memory allocation (min/avg/max) = 13.71 | 13.71 | 13.71 Mbytes
   Step          Temp          PotEng         KinEng         TotEng         Press          Volume        Density          CPU      
         0   423.15        -270626.27      25225.334     -245400.94      95533.256      402592.25      6.2796667      0            
        79   423.15        -300932.16      25225.334     -275706.83      86215.695      402592.25      6.2796667      0.11952016   
Loop time of 0.119528 on 1 procs for 79 steps with 20000 atoms

99.4% CPU use with 1 MPI tasks x 1 OpenMP threads

Minimization stats:
  Stopping criterion = energy tolerance
  Energy initial, next-to-last, final = 
      -270626.27286638  -300908.110523812    -300932.1615487
  Force two-norm initial, final = 1450.8452 44.274821
  Force max component initial, final = 43.235708 3.7908072
  Final line search alpha, max atom move = 0.007299355 0.027670447
  Iterations, force evaluations = 79 79

MPI task timing breakdown:
Section |  min time  |  avg time  |  max time  |%varavg| %total
---------------------------------------------------------------
Pair    | 0.096211   | 0.096211   | 0.096211   |   0.0 | 80.49
Neigh   | 0.0037477  | 0.0037477  | 0.0037477  |   0.0 |  3.14
Comm    | 0.0053956  | 0.0053956  | 0.0053956  |   0.0 |  4.51
Output  | 0          | 0          | 0          |   0.0 |  0.00
Modify  | 0          | 0          | 0          |   0.0 |  0.00
Other   |            | 0.01417    |            |       | 11.86

Nlocal:          20000 ave       20000 max       20000 min
Histogram: 1 0 0 0 0 0 0 0 0 0
Nghost:          32457 ave       32457 max       32457 min
Histogram: 1 0 0 0 0 0 0 0 0 0
Neighs:              0 ave           0 max           0 min
Histogram: 1 0 0 0 0 0 0 0 0 0
FullNghs:  1.14475e+07 ave 1.14475e+07 max 1.14475e+07 min
Histogram: 1 0 0 0 0 0 0 0 0 0

Total # of neighbors = 11447464
Ave neighs/atom = 572.3732
Neighbor list builds = 3
Dangerous builds = 0
reset_timestep  0

# ========== RDF computation ==========
# Compute total and partial pair distribution functions
compute         myrdf all rdf 200 1 1 1 2 2 2 cutoff 12.0

# Time-average RDF output
fix             rdfout all ave/time 100 10 1000 c_myrdf[*] file rdf.dat mode vector

# ========== Equilibration (NVT) ==========
print "========== H100 GPU Equilibration =========="
========== H100 GPU Equilibration ==========

# Start with small timestep for stability
timestep        0.5

fix             nvt all nvt temp 423.15 423.15 100.0
run             5000
Generated 0 of 1 mixed pair_coeff terms from geometric mixing rule
Neighbor list info ...
  update: every = 1 steps, delay = 0 steps, check = yes
  max neighbors/atom: 2000, page size: 100000
  master list distance cutoff = 14
  ghost atom cutoff = 14
  binsize = 4, bins = 19 19 19
  3 neighbor lists, perpetual/occasional/extra = 2 1 0
  (1) pair lj/cut, perpetual
      attributes: full, newton off, kokkos_device
      pair build: full/bin/kk/device
      stencil: full/bin/3d
      bin: kk/device
  (2) pair table, perpetual, copy from (1)
      attributes: full, newton off, kokkos_device
      pair build: copy/kk/device
      stencil: none
      bin: none
  (3) compute rdf, occasional
      attributes: half, newton off
      pair build: half/bin/atomonly/newtoff
      stencil: full/bin/3d
      bin: standard
Per MPI rank memory allocation (min/avg/max) = 12.07 | 12.07 | 12.07 Mbytes
   Step          Temp          PotEng         KinEng         TotEng         Press          Volume        Density          CPU      
         0   423.15        -300932.16      25225.334     -275706.83      86215.695      402592.25      6.2796667      0            
      1000   331.49856     -283596.37      19761.697     -263834.68      95680.712      402592.25      6.2796667      2.8767132    
      2000   431.31008     -277586.54      25711.783     -251874.75      99571.48       402592.25      6.2796667      5.9569928    
      3000   425.86814     -277494.39      25387.371     -252107.02      99231.18       402592.25      6.2796667      9.0386396    
      4000   421.49573     -277268.82      25126.718     -252142.11      99367.275      402592.25      6.2796667      12.122232    
      5000   424.26583     -277188.65      25291.853     -251896.8       99221.941      402592.25      6.2796667      15.215732    
Loop time of 15.2157 on 1 procs for 5000 steps with 20000 atoms

Performance: 14.196 ns/day, 1.691 hours/ns, 328.607 timesteps/s, 6.572 Matom-step/s
99.9% CPU use with 1 MPI tasks x 1 OpenMP threads

MPI task timing breakdown:
Section |  min time  |  avg time  |  max time  |%varavg| %total
---------------------------------------------------------------
Pair    | 2.5234     | 2.5234     | 2.5234     |   0.0 | 16.58
Neigh   | 0.037025   | 0.037025   | 0.037025   |   0.0 |  0.24
Comm    | 0.049274   | 0.049274   | 0.049274   |   0.0 |  0.32
Output  | 0.0017358  | 0.0017358  | 0.0017358  |   0.0 |  0.01
Modify  | 12.433     | 12.433     | 12.433     |   0.0 | 81.71
Other   |            | 0.1713     |            |       |  1.13

Nlocal:          20000 ave       20000 max       20000 min
Histogram: 1 0 0 0 0 0 0 0 0 0
Nghost:          32510 ave       32510 max       32510 min
Histogram: 1 0 0 0 0 0 0 0 0 0
Neighs:    6.85508e+06 ave 6.85508e+06 max 6.85508e+06 min
Histogram: 1 0 0 0 0 0 0 0 0 0
FullNghs:  1.14245e+07 ave 1.14245e+07 max 1.14245e+07 min
Histogram: 1 0 0 0 0 0 0 0 0 0

Total # of neighbors = 11424466
Ave neighs/atom = 571.2233
Neighbor list builds = 23
Dangerous builds = 0
unfix           nvt

# Increase timestep to normal
timestep        2.0

fix             nvt all nvt temp 423.15 423.15 100.0
run             15000
Generated 0 of 1 mixed pair_coeff terms from geometric mixing rule
Per MPI rank memory allocation (min/avg/max) = 38.39 | 38.39 | 38.39 Mbytes
   Step          Temp          PotEng         KinEng         TotEng         Press          Volume        Density          CPU      
      5000   424.26583     -277188.65      25291.853     -251896.8       99221.941      402592.25      6.2796667      0            
      6000   426.72085     -277180.03      25438.204     -251741.82      99356.756      402592.25      6.2796667      4.171967     
      7000   423.30233     -277495.61      25234.415     -252261.19      99220.913      402592.25      6.2796667      8.3352486    
      8000   417.98207     -277427.17      24917.257     -252509.91      99343.308      402592.25      6.2796667      12.495587    
      9000   425.00843     -277044.72      25336.121     -251708.6       99555.068      402592.25      6.2796667      16.661512    
     10000   423.96834     -277332.5       25274.118     -252058.38      99100.022      402592.25      6.2796667      20.837971    
     11000   422.19243     -277206.42      25168.25      -252038.17      99385.619      402592.25      6.2796667      25.008055    
     12000   421.99769     -277258.64      25156.641     -252102         99334.346      402592.25      6.2796667      29.168086    
     13000   427.80526     -277319.8       25502.849     -251816.96      99285.75       402592.25      6.2796667      33.332699    
     14000   425.53102     -277161.23      25367.274     -251793.95      99276.746      402592.25      6.2796667      37.498685    
     15000   426.12061     -277261.3       25402.422     -251858.88      99502.721      402592.25      6.2796667      41.676014    
     16000   428.74291     -277568.16      25558.745     -252009.41      99314.269      402592.25      6.2796667      45.848902    
     17000   421.95575     -277195.07      25154.141     -252040.93      99445.77       402592.25      6.2796667      50.014115    
     18000   424.2559      -277139.99      25291.261     -251848.73      99195.161      402592.25      6.2796667      54.177835    
     19000   424.53133     -277321.4       25307.68      -252013.72      99297.889      402592.25      6.2796667      58.35346     
     20000   420.41534     -277119.57      25062.312     -252057.26      99308.066      402592.25      6.2796667      62.515512    
Loop time of 62.5155 on 1 procs for 15000 steps with 20000 atoms

Performance: 41.462 ns/day, 0.579 hours/ns, 239.940 timesteps/s, 4.799 Matom-step/s
100.0% CPU use with 1 MPI tasks x 1 OpenMP threads

MPI task timing breakdown:
Section |  min time  |  avg time  |  max time  |%varavg| %total
---------------------------------------------------------------
Pair    | 7.6145     | 7.6145     | 7.6145     |   0.0 | 12.18
Neigh   | 0.4646     | 0.4646     | 0.4646     |   0.0 |  0.74
Comm    | 0.36936    | 0.36936    | 0.36936    |   0.0 |  0.59
Output  | 0.0050894  | 0.0050894  | 0.0050894  |   0.0 |  0.01
Modify  | 53.459     | 53.459     | 53.459     |   0.0 | 85.51
Other   |            | 0.6035     |            |       |  0.97

Nlocal:          20000 ave       20000 max       20000 min
Histogram: 1 0 0 0 0 0 0 0 0 0
Nghost:          32523 ave       32523 max       32523 min
Histogram: 1 0 0 0 0 0 0 0 0 0
Neighs:    6.85821e+06 ave 6.85821e+06 max 6.85821e+06 min
Histogram: 1 0 0 0 0 0 0 0 0 0
FullNghs:  1.14262e+07 ave 1.14262e+07 max 1.14262e+07 min
Histogram: 1 0 0 0 0 0 0 0 0 0

Total # of neighbors = 11426186
Ave neighs/atom = 571.3093
Neighbor list builds = 292
Dangerous builds = 0
unfix           nvt

# ========== Production (NVT) ==========
print "========== H100 GPU Production run =========="
========== H100 GPU Production run ==========

fix             nvt all nvt temp 423.15 423.15 100.0

# Reset RDF for production run
uncompute       myrdf
compute         myrdf all rdf 200 1 1 1 2 2 2 cutoff 12.0
unfix           rdfout
fix             rdfout all ave/time 100 10 1000 c_myrdf[*] file rdf.dat mode vector

run             100000
Generated 0 of 1 mixed pair_coeff terms from geometric mixing rule
Neighbor list info ...
  update: every = 1 steps, delay = 0 steps, check = yes
  max neighbors/atom: 2000, page size: 100000
  master list distance cutoff = 14
  ghost atom cutoff = 14
  binsize = 4, bins = 19 19 19
  3 neighbor lists, perpetual/occasional/extra = 2 1 0
  (1) pair lj/cut, perpetual
      attributes: full, newton off, kokkos_device
      pair build: full/bin/kk/device
      stencil: full/bin/3d
      bin: kk/device
  (2) pair table, perpetual, copy from (1)
      attributes: full, newton off, kokkos_device
      pair build: copy/kk/device
      stencil: none
      bin: none
  (3) compute rdf, occasional
      attributes: half, newton off
      pair build: half/bin/atomonly/newtoff
      stencil: full/bin/3d
      bin: standard
Per MPI rank memory allocation (min/avg/max) = 12.07 | 12.07 | 12.07 Mbytes
   Step          Temp          PotEng         KinEng         TotEng         Press          Volume        Density          CPU      
     20000   420.41534     -277119.57      25062.312     -252057.26      99308.066      402592.25      6.2796667      0            
     21000   421.87793     -277419.17      25149.502     -252269.67      99189.822      402592.25      6.2796667      4.1726272    
     22000   426.63632     -277370.53      25433.165     -251937.36      99341.764      402592.25      6.2796667      8.3411548    
     23000   422.67863     -277299.28      25197.234     -252102.05      99357.805      402592.25      6.2796667      12.502057    
     24000   425.80646     -276988.73      25383.694     -251605.03      99542.017      402592.25      6.2796667      16.670148    
     25000   423.68788     -277433.34      25257.399     -252175.94      99280.552      402592.25      6.2796667      20.841791    
     26000   423.27473     -277369.45      25232.77      -252136.68      99250.984      402592.25      6.2796667      25.006239    
     27000   422.49314     -277391.45      25186.177     -252205.28      99480.15       402592.25      6.2796667      29.169137    
     28000   420.29853     -276903.31      25055.349     -251847.96      99570.301      402592.25      6.2796667      33.343772    
     29000   423.4326      -277552.38      25242.181     -252310.2       99221.618      402592.25      6.2796667      37.519898    
     30000   420.1973      -277318.69      25049.314     -252269.38      99322.593      402592.25      6.2796667      41.684053    
     31000   423.40988     -277079.75      25240.827     -251838.93      99212.02       402592.25      6.2796667      45.847969    
     32000   425.11326     -277334.07      25342.371     -251991.7       99238.754      402592.25      6.2796667      50.018198    
     33000   417.93908     -277213.07      24914.694     -252298.38      99473.03       402592.25      6.2796667      54.188118    
     34000   422.01695     -277361.04      25157.79      -252203.25      99284.569      402592.25      6.2796667      58.358361    
     35000   421.31974     -277336.22      25116.226     -252220         99304.479      402592.25      6.2796667      62.523602    
     36000   422.45577     -277633.69      25183.949     -252449.74      99257.89       402592.25      6.2796667      66.695694    
     37000   427.42371     -277645.28      25480.104     -252165.18      99132.362      402592.25      6.2796667      70.867783    
     38000   425.62228     -277475.61      25372.715     -252102.9       99343.704      402592.25      6.2796667      75.040249    
     39000   420.64422     -277192.79      25075.957     -252116.83      99441.518      402592.25      6.2796667      79.199104    
     40000   421.29811     -277329.14      25114.937     -252214.2       99493.073      402592.25      6.2796667      83.356909    
     41000   424.5837      -276988.52      25310.802     -251677.72      99372.465      402592.25      6.2796667      87.515719    
     42000   423.42273     -277284.76      25241.592     -252043.17      99412.41       402592.25      6.2796667      91.677154    
     43000   422.23813     -277248.95      25170.975     -252077.98      99389.498      402592.25      6.2796667      95.841393    
     44000   423.53427     -277092.18      25248.242     -251843.94      99392.292      402592.25      6.2796667      100.00749    
     45000   422.23331     -277370.48      25170.687     -252199.79      99204.548      402592.25      6.2796667      104.17347    
     46000   423.82881     -277115.6       25265.8       -251849.8       99507.179      402592.25      6.2796667      108.34025    
     47000   422.62488     -277474.14      25194.03      -252280.11      99082.137      402592.25      6.2796667      112.5107     
     48000   422.16704     -277167.43      25166.737     -252000.69      99217.676      402592.25      6.2796667      116.67499    
     49000   422.83885     -277342.25      25206.785     -252135.46      99261.044      402592.25      6.2796667      120.8254     
     50000   427.02256     -277348.46      25456.19      -251892.27      99148.505      402592.25      6.2796667      124.99273    
     51000   420.96929     -277118.7       25095.335     -252023.36      99573.197      402592.25      6.2796667      129.14731    
     52000   418.93572     -277306.58      24974.107     -252332.47      99343.181      402592.25      6.2796667      133.32577    
     53000   421.24402     -277293.35      25111.712     -252181.64      99240.165      402592.25      6.2796667      137.48933    
     54000   424.85585     -277194.88      25327.025     -251867.85      99581.209      402592.25      6.2796667      141.66396    
     55000   423.27628     -277287.91      25232.862     -252055.04      99204.1        402592.25      6.2796667      145.83796    
     56000   422.41679     -277123.23      25181.625     -251941.6       99454.973      402592.25      6.2796667      150.00273    
     57000   421.75664     -277397.5       25142.272     -252255.23      99287.232      402592.25      6.2796667      154.17109    
     58000   427.41894     -277214.93      25479.819     -251735.11      99422.317      402592.25      6.2796667      158.32925    
     59000   418.61757     -277236.81      24955.141     -252281.67      99363.945      402592.25      6.2796667      162.49285    
     60000   420.71895     -277204.69      25080.411     -252124.27      99296.88       402592.25      6.2796667      166.65898    
     61000   424.08492     -277165.9       25281.068     -251884.83      99372.9        402592.25      6.2796667      170.82573    
     62000   422.74359     -277473.3       25201.107     -252272.19      99274.877      402592.25      6.2796667      174.98896    
     63000   424.08366     -277063.87      25280.992     -251782.87      99392.425      402592.25      6.2796667      179.15473    
     64000   425.01924     -277297.84      25336.766     -251961.07      99426.466      402592.25      6.2796667      183.32635    
     65000   428.83355     -277579.24      25564.149     -252015.09      99224.694      402592.25      6.2796667      187.49781    
     66000   420.55081     -277482.71      25070.388     -252412.32      99193.954      402592.25      6.2796667      191.65928    
     67000   419.83807     -277101.24      25027.9       -252073.34      99337.16       402592.25      6.2796667      195.833      
     68000   422.72611     -277219.94      25200.064     -252019.87      99370.017      402592.25      6.2796667      199.99208    
     69000   423.76109     -276961.24      25261.763     -251699.48      99414.003      402592.25      6.2796667      204.17079    
     70000   424.97996     -277289.26      25334.424     -251954.83      99334.683      402592.25      6.2796667      208.33295    
     71000   424.8103      -277134.46      25324.31      -251810.14      99431.268      402592.25      6.2796667      212.50114    
     72000   424.23643     -277318.98      25290.1       -252028.88      99090.782      402592.25      6.2796667      216.68113    
     73000   423.10209     -277265.87      25222.478     -252043.39      99341.283      402592.25      6.2796667      220.86073    
     74000   426.4941      -277362.68      25424.686     -251937.99      99394.361      402592.25      6.2796667      225.03609    
     75000   419.86061     -277146.87      25029.243     -252117.63      99493.821      402592.25      6.2796667      229.21736    
     76000   426.94376     -277120.84      25451.493     -251669.35      99432.883      402592.25      6.2796667      233.39386    
     77000   422.82066     -277165.83      25205.701     -251960.13      99438.937      402592.25      6.2796667      237.55336    
     78000   424.01205     -277452.2       25276.724     -252175.48      99386.847      402592.25      6.2796667      241.73879    
     79000   424.3567      -277256.07      25297.269     -251958.8       99308.427      402592.25      6.2796667      245.91853    
     80000   421.85018     -277192.44      25147.847     -252044.59      99269.059      402592.25      6.2796667      250.07837    
     81000   424.39815     -277069.45      25299.74      -251769.71      99406.374      402592.25      6.2796667      254.2424     
     82000   421.95727     -277407.43      25154.232     -252253.2       99219.111      402592.25      6.2796667      258.40651    
     83000   425.97237     -277227.65      25393.585     -251834.07      99295.154      402592.25      6.2796667      262.57552    
     84000   421.20676     -277519.87      25109.492     -252410.38      99071.287      402592.25      6.2796667      266.74174    
     85000   424.94476     -277474.53      25332.326     -252142.21      99141.02       402592.25      6.2796667      270.91014    
     86000   422.94351     -277433.81      25213.025     -252220.79      99293.994      402592.25      6.2796667      275.0644     
     87000   422.9556      -277294.32      25213.745     -252080.57      99469.104      402592.25      6.2796667      279.22585    
     88000   424.3166      -277120.1       25294.879     -251825.22      99456.693      402592.25      6.2796667      283.3851     
     89000   423.73317     -277426.36      25260.099     -252166.27      99227.785      402592.25      6.2796667      287.55676    
     90000   423.3173      -277180.49      25235.307     -251945.18      99333.646      402592.25      6.2796667      291.71475    
     91000   422.56834     -277237.6       25190.66      -252046.94      99389.758      402592.25      6.2796667      295.8863     
     92000   421.55469     -277367.95      25130.232     -252237.72      99152.729      402592.25      6.2796667      300.05024    
     93000   418.44644     -277089.07      24944.94      -252144.13      99278.308      402592.25      6.2796667      304.2163     
     94000   425.37459     -277537.5       25357.949     -252179.55      99218.944      402592.25      6.2796667      308.3727     
     95000   419.53583     -277394.73      25009.882     -252384.85      99004.538      402592.25      6.2796667      312.5379     
     96000   420.70921     -277233.82      25079.831     -252153.99      99273.838      402592.25      6.2796667      316.70867    
     97000   422.9174      -277124.42      25211.468     -251912.96      99181.883      402592.25      6.2796667      320.88372    
     98000   421.21209     -277203.65      25109.809     -252093.84      99147.124      402592.25      6.2796667      325.04784    
     99000   428.80485     -277370.98      25562.438     -251808.55      99452.889      402592.25      6.2796667      329.21908    
    100000   429.62486     -276798.73      25611.322     -251187.41      99295.745      402592.25      6.2796667      333.38375    
    101000   426.75008     -277270.33      25439.946     -251830.38      99377.833      402592.25      6.2796667      337.55556    
    102000   421.80576     -277056.44      25145.2       -251911.24      99259.387      402592.25      6.2796667      341.70919    
    103000   419.31149     -277454.84      24996.508     -252458.34      99319.334      402592.25      6.2796667      345.88451    
    104000   426.04235     -277574.61      25397.756     -252176.85      99249.197      402592.25      6.2796667      350.04758    
    105000   426.2866      -277479.2       25412.317     -252066.89      99324.082      402592.25      6.2796667      354.21428    
    106000   425.63511     -277112.55      25373.48      -251739.07      99275.424      402592.25      6.2796667      358.37431    
    107000   426.05044     -277422.13      25398.239     -252023.89      99441.694      402592.25      6.2796667      362.53953    
    108000   420.51483     -277163.52      25068.243     -252095.27      99440.306      402592.25      6.2796667      366.69934    
    109000   425.01636     -277333.44      25336.594     -251996.85      99355.022      402592.25      6.2796667      370.86233    
    110000   421.85333     -277348.13      25148.036     -252200.09      99219.953      402592.25      6.2796667      375.03854    
    111000   425.38262     -277299.02      25358.428     -251940.6       99230.166      402592.25      6.2796667      379.21458    
    112000   423.84578     -277539.58      25266.812     -252272.77      99182.922      402592.25      6.2796667      383.38224    
    113000   424.05322     -277289.07      25279.178     -252009.89      99396.49       402592.25      6.2796667      387.53772    
    114000   421.62352     -277192.93      25134.336     -252058.6       99383.837      402592.25      6.2796667      391.69418    
    115000   420.31454     -277282.5       25056.303     -252226.2       99354.922      402592.25      6.2796667      395.86209    
    116000   420.90874     -277761.58      25091.726     -252669.85      99193.321      402592.25      6.2796667      400.02496    
    117000   419.32623     -277490.01      24997.387     -252492.62      99089.002      402592.25      6.2796667      404.17649    
    118000   421.60029     -277354.31      25132.951     -252221.36      99280.201      402592.25      6.2796667      408.34595    
    119000   422.14683     -277382.2       25165.532     -252216.67      99208.518      402592.25      6.2796667      412.51857    
    120000   424.57016     -277452.84      25309.994     -252142.85      99260.22       402592.25      6.2796667      416.68935    
Loop time of 416.689 on 1 procs for 100000 steps with 20000 atoms

Performance: 41.470 ns/day, 0.579 hours/ns, 239.987 timesteps/s, 4.800 Matom-step/s
100.0% CPU use with 1 MPI tasks x 1 OpenMP threads

MPI task timing breakdown:
Section |  min time  |  avg time  |  max time  |%varavg| %total
---------------------------------------------------------------
Pair    | 50.637     | 50.637     | 50.637     |   0.0 | 12.15
Neigh   | 3.0905     | 3.0905     | 3.0905     |   0.0 |  0.74
Comm    | 2.4654     | 2.4654     | 2.4654     |   0.0 |  0.59
Output  | 0.034352   | 0.034352   | 0.034352   |   0.0 |  0.01
Modify  | 356.43     | 356.43     | 356.43     |   0.0 | 85.54
Other   |            | 4.028      |            |       |  0.97

Nlocal:          20000 ave       20000 max       20000 min
Histogram: 1 0 0 0 0 0 0 0 0 0
Nghost:          32519 ave       32519 max       32519 min
Histogram: 1 0 0 0 0 0 0 0 0 0
Neighs:    6.85866e+06 ave 6.85866e+06 max 6.85866e+06 min
Histogram: 1 0 0 0 0 0 0 0 0 0
FullNghs:  1.14276e+07 ave 1.14276e+07 max 1.14276e+07 min
Histogram: 1 0 0 0 0 0 0 0 0 0

Total # of neighbors = 11427632
Ave neighs/atom = 571.3816
Neighbor list builds = 1951
Dangerous builds = 0
unfix           nvt

# ========== Finalize ==========
print "========== H100 GPU Simulation completed =========="
========== H100 GPU Simulation completed ==========

# Write restart file for next iteration (use fixed name to avoid shell command issues)
write_restart   outputs/restart.0.data
System init for write_restart ...
Generated 0 of 1 mixed pair_coeff terms from geometric mixing rule

# Final statistics
variable        density_final equal density
variable        temp_final equal temp
variable        press_final equal press

print "========================================="
=========================================
print "FINAL RESULTS:"
FINAL RESULTS:
print "  Density:     ${density_final} g/cm^3"
  Density:     6.27966666056994 g/cm^3
print "  Temperature: ${temp_final} K"
  Temperature: 424.570160519721 K
print "  Pressure:    ${press_final} bar"
  Pressure:    99260.2195713044 bar
print "========================================="
=========================================

print "RDF written to rdf.dat"
RDF written to rdf.dat
print "Restart file written to outputs/restart.0.data"
Restart file written to outputs/restart.0.data
Total wall time: 0:08:15
