LAMMPS (22 Jul 2025 - Update 2)
KOKKOS mode with Kokkos version 4.6.2 is enabled
  will use up to 1 GPU(s) per node
  using 1 OpenMP thread(s) per MPI task
package kokkos
# H100 GPU-Optimized LAMMPS input for EPSR simulation of EGaIn eutectic alloy
# Composition: Ga0.858In0.142
# Temperature: 150Â°C (423.15 K)
# Potential: LJ + Empirical Potential (table)
# GPU: Using KOKKOS for H100 (Hopper architecture)

# ========== KOKKOS Initialization (CRITICAL: Must be first) ==========
# CRITICAL FIX: newton off prevents KOKKOS errors on H100
# Note: pair_style table does not have /kk support, but will run on CPU while LJ runs on GPU
package         kokkos neigh full newton off

# ========== Initialization ==========
units           real
atom_style      atomic
boundary        p p p

# ========== Force field ==========
# Use hybrid/overlay to combine LJ (GPU-accelerated) and table (CPU)
# The -sf kk flag will automatically use lj/cut/kk while table runs on CPU
# NOTE: pair_style must be defined BEFORE read_data if data file contains Pair Coeffs section
pair_style      hybrid/overlay lj/cut 12.0 table linear 200

# ========== Read structure ==========
# Use LJ-equilibrated structure as initial configuration (more stable)
shell           mkdir -p outputs
# nocoeff skips Pair Coeffs section which is incompatible with hybrid/overlay
read_data       outputs/final_structure_lj_H100.data nocoeff
Reading data file ...
  orthogonal box = (0 0 0) to (73.839453 73.839453 73.839453)
  1 by 1 by 1 MPI processor grid
WARNING: Pair style lj/cut/kk in data file differs from currently defined pair style zero (src/read_data.cpp:811)
  reading atoms ...
  20000 atoms
  reading velocities ...
  20000 velocities
  read_data CPU = 0.113 seconds

# LJ potential (GPU-accelerated with -sf kk flag)
pair_coeff      1 1 lj/cut 0.430 2.70    # Ga-Ga
pair_coeff      2 2 lj/cut 0.430 3.11    # In-In
pair_coeff      1 2 lj/cut 0.430 2.905   # Ga-In

# Empirical potential (from table files - runs on CPU)
# Table format: r, U(r), F(r)
pair_coeff      1 1 table data/ep_GaGa.table EP_GAGA 12.0
pair_coeff      2 2 table data/ep_InIn.table EP_ININ 12.0
pair_coeff      1 2 table data/ep_GaIn.table EP_GAIN 12.0

# ========== Settings ==========
mass            1 69.723    # Ga
mass            2 114.818   # In

# Optimized neighbor list for GPU
neighbor        2.0 bin
neigh_modify    delay 0 every 1 check yes binsize 4.0

# ========== Initial velocity ==========
# Re-initialize velocities for this temperature
velocity        all create 423.15 12345 dist gaussian

# ========== Thermodynamic output ==========
thermo          1000
thermo_style    custom step temp pe ke etotal press vol density cpu

# ========== Quick minimization for stability ==========
print "========== Energy Minimization =========="
========== Energy Minimization ==========
minimize        1.0e-4 1.0e-6 1000 10000
Generated 0 of 1 mixed pair_coeff terms from geometric mixing rule
Neighbor list info ...
  update: every = 1 steps, delay = 0 steps, check = yes
  max neighbors/atom: 2000, page size: 100000
  master list distance cutoff = 14
  ghost atom cutoff = 14
  binsize = 4, bins = 19 19 19
  2 neighbor lists, perpetual/occasional/extra = 2 0 0
  (1) pair lj/cut, perpetual
      attributes: full, newton off, kokkos_device
      pair build: full/bin/kk/device
      stencil: full/bin/3d
      bin: kk/device
  (2) pair table, perpetual, copy from (1)
      attributes: full, newton off, kokkos_device
      pair build: copy/kk/device
      stencil: none
      bin: none
WARNING: Fix MINIMIZE/kk not compatible with sending data in Kokkos communication (src/KOKKOS/comm_kokkos.cpp:767)
WARNING: Fix with atom-based arrays not compatible with sending data in Kokkos communication, switching to classic exchange/border communication (src/KOKKOS/comm_kokkos.cpp:780)
WARNING: Fix MINIMIZE/kk not compatible with Kokkos sorting on device (src/KOKKOS/atom_kokkos.cpp:212)
WARNING: Fix with atom-based arrays not compatible with Kokkos sorting on device, switching to classic host sorting (src/KOKKOS/atom_kokkos.cpp:218)
Per MPI rank memory allocation (min/avg/max) = 13.71 | 13.71 | 13.71 Mbytes
   Step          Temp          PotEng         KinEng         TotEng         Press          Volume        Density          CPU      
         0   423.15        -41656.468      25225.334     -16431.134      26889.529      402592.25      6.2796667      0            
       126   423.15        -65386.62       25225.334     -40161.286      6465.8367      402592.25      6.2796667      0.19244071   
Loop time of 0.192448 on 1 procs for 126 steps with 20000 atoms

100.0% CPU use with 1 MPI tasks x 1 OpenMP threads

Minimization stats:
  Stopping criterion = energy tolerance
  Energy initial, next-to-last, final = 
     -41656.4679952413  -65380.3714680237  -65386.6198840957
  Force two-norm initial, final = 1548.8099 16.43196
  Force max component initial, final = 43.183702 3.7906158
  Final line search alpha, max atom move = 0.025126775 0.095245949
  Iterations, force evaluations = 126 128

MPI task timing breakdown:
Section |  min time  |  avg time  |  max time  |%varavg| %total
---------------------------------------------------------------
Pair    | 0.15647    | 0.15647    | 0.15647    |   0.0 | 81.30
Neigh   | 0.0073722  | 0.0073722  | 0.0073722  |   0.0 |  3.83
Comm    | 0.0077297  | 0.0077297  | 0.0077297  |   0.0 |  4.02
Output  | 0          | 0          | 0          |   0.0 |  0.00
Modify  | 0          | 0          | 0          |   0.0 |  0.00
Other   |            | 0.02088    |            |       | 10.85

Nlocal:          20000 ave       20000 max       20000 min
Histogram: 1 0 0 0 0 0 0 0 0 0
Nghost:          32421 ave       32421 max       32421 min
Histogram: 1 0 0 0 0 0 0 0 0 0
Neighs:              0 ave           0 max           0 min
Histogram: 1 0 0 0 0 0 0 0 0 0
FullNghs:   1.1392e+07 ave  1.1392e+07 max  1.1392e+07 min
Histogram: 1 0 0 0 0 0 0 0 0 0

Total # of neighbors = 11392006
Ave neighs/atom = 569.6003
Neighbor list builds = 6
Dangerous builds = 0
reset_timestep  0

# ========== RDF computation ==========
# Compute total and partial pair distribution functions
compute         myrdf all rdf 200 1 1 1 2 2 2 cutoff 12.0

# Time-average RDF output
fix             rdfout all ave/time 100 10 1000 c_myrdf[*] file rdf.dat mode vector

# ========== Equilibration (NVT) ==========
print "========== H100 GPU Equilibration =========="
========== H100 GPU Equilibration ==========

# Start with small timestep for stability
timestep        0.5

fix             nvt all nvt temp 423.15 423.15 100.0
run             5000
Generated 0 of 1 mixed pair_coeff terms from geometric mixing rule
Neighbor list info ...
  update: every = 1 steps, delay = 0 steps, check = yes
  max neighbors/atom: 2000, page size: 100000
  master list distance cutoff = 14
  ghost atom cutoff = 14
  binsize = 4, bins = 19 19 19
  3 neighbor lists, perpetual/occasional/extra = 2 1 0
  (1) pair lj/cut, perpetual
      attributes: full, newton off, kokkos_device
      pair build: full/bin/kk/device
      stencil: full/bin/3d
      bin: kk/device
  (2) pair table, perpetual, copy from (1)
      attributes: full, newton off, kokkos_device
      pair build: copy/kk/device
      stencil: none
      bin: none
  (3) compute rdf, occasional
      attributes: half, newton off
      pair build: half/bin/atomonly/newtoff
      stencil: full/bin/3d
      bin: standard
Per MPI rank memory allocation (min/avg/max) = 12.06 | 12.06 | 12.06 Mbytes
   Step          Temp          PotEng         KinEng         TotEng         Press          Volume        Density          CPU      
         0   423.15        -65386.62       25225.334     -40161.286      6465.8367      402592.25      6.2796667      0            
      1000   323.48809     -48268.705      19284.167     -28984.538      20601.876      402592.25      6.2796667      2.8716818    
      2000   431.53176     -42229.127      25724.998     -16504.129      26446.42       402592.25      6.2796667      5.9352181    
      3000   424.28132     -42385.306      25292.776     -17092.531      26284.181      402592.25      6.2796667      9.0026326    
      4000   421.00552     -42136.356      25097.495     -17038.862      26500.273      402592.25      6.2796667      12.073848    
      5000   424.33928     -42163.486      25296.231     -16867.255      26477.247      402592.25      6.2796667      15.136436    
Loop time of 15.1364 on 1 procs for 5000 steps with 20000 atoms

Performance: 14.270 ns/day, 1.682 hours/ns, 330.329 timesteps/s, 6.607 Matom-step/s
99.9% CPU use with 1 MPI tasks x 1 OpenMP threads

MPI task timing breakdown:
Section |  min time  |  avg time  |  max time  |%varavg| %total
---------------------------------------------------------------
Pair    | 2.5121     | 2.5121     | 2.5121     |   0.0 | 16.60
Neigh   | 0.038293   | 0.038293   | 0.038293   |   0.0 |  0.25
Comm    | 0.04983    | 0.04983    | 0.04983    |   0.0 |  0.33
Output  | 0.0017717  | 0.0017717  | 0.0017717  |   0.0 |  0.01
Modify  | 12.363     | 12.363     | 12.363     |   0.0 | 81.68
Other   |            | 0.171      |            |       |  1.13

Nlocal:          20000 ave       20000 max       20000 min
Histogram: 1 0 0 0 0 0 0 0 0 0
Nghost:          32532 ave       32532 max       32532 min
Histogram: 1 0 0 0 0 0 0 0 0 0
Neighs:     6.8414e+06 ave  6.8414e+06 max  6.8414e+06 min
Histogram: 1 0 0 0 0 0 0 0 0 0
FullNghs:  1.13987e+07 ave 1.13987e+07 max 1.13987e+07 min
Histogram: 1 0 0 0 0 0 0 0 0 0

Total # of neighbors = 11398700
Ave neighs/atom = 569.935
Neighbor list builds = 23
Dangerous builds = 0
unfix           nvt

# Increase timestep to normal
timestep        2.0

fix             nvt all nvt temp 423.15 423.15 100.0
run             15000
Generated 0 of 1 mixed pair_coeff terms from geometric mixing rule
Per MPI rank memory allocation (min/avg/max) = 38.39 | 38.39 | 38.39 Mbytes
   Step          Temp          PotEng         KinEng         TotEng         Press          Volume        Density          CPU      
      5000   424.33928     -42163.486      25296.231     -16867.255      26477.247      402592.25      6.2796667      0            
      6000   423.37829     -41624.833      25238.943     -16385.89       26925.293      402592.25      6.2796667      4.1483164    
      7000   420.79768     -41708.005      25085.105     -16622.9        26824.777      402592.25      6.2796667      8.2942089    
      8000   423.62009     -41731.292      25253.358     -16477.934      26804.708      402592.25      6.2796667      12.441747    
      9000   427.97218     -41979.292      25512.8       -16466.492      26670.127      402592.25      6.2796667      16.586062    
     10000   419.91797     -42133.9        25032.663     -17101.238      26488.443      402592.25      6.2796667      20.721609    
     11000   421.45171     -41859.57       25124.094     -16735.476      26739.876      402592.25      6.2796667      24.858978    
     12000   424.03867     -41882.626      25278.311     -16604.315      26708.857      402592.25      6.2796667      29.002927    
     13000   421.75921     -42054.417      25142.425     -16911.992      26558.25       402592.25      6.2796667      33.155568    
     14000   418.98639     -41669.394      24977.128     -16692.266      26857.26       402592.25      6.2796667      37.296058    
     15000   419.9454      -41592.628      25034.297     -16558.331      26940.723      402592.25      6.2796667      41.431161    
     16000   419.37232     -41932.459      25000.134     -16932.325      26662.434      402592.25      6.2796667      45.570393    
     17000   422.82739     -41741.858      25206.102     -16535.756      26838.901      402592.25      6.2796667      49.721141    
     18000   424.17457     -41804.904      25286.412     -16518.492      26776.148      402592.25      6.2796667      53.874149    
     19000   420.75564     -41872.096      25082.598     -16789.497      26715.948      402592.25      6.2796667      58.013501    
     20000   420.30441     -41644.243      25055.7       -16588.543      26887.957      402592.25      6.2796667      62.150908    
Loop time of 62.1509 on 1 procs for 15000 steps with 20000 atoms

Performance: 41.705 ns/day, 0.575 hours/ns, 241.348 timesteps/s, 4.827 Matom-step/s
100.0% CPU use with 1 MPI tasks x 1 OpenMP threads

MPI task timing breakdown:
Section |  min time  |  avg time  |  max time  |%varavg| %total
---------------------------------------------------------------
Pair    | 7.5562     | 7.5562     | 7.5562     |   0.0 | 12.16
Neigh   | 0.46665    | 0.46665    | 0.46665    |   0.0 |  0.75
Comm    | 0.36957    | 0.36957    | 0.36957    |   0.0 |  0.59
Output  | 0.0053728  | 0.0053728  | 0.0053728  |   0.0 |  0.01
Modify  | 53.15      | 53.15      | 53.15      |   0.0 | 85.52
Other   |            | 0.6031     |            |       |  0.97

Nlocal:          20000 ave       20000 max       20000 min
Histogram: 1 0 0 0 0 0 0 0 0 0
Nghost:          32504 ave       32504 max       32504 min
Histogram: 1 0 0 0 0 0 0 0 0 0
Neighs:     6.8441e+06 ave  6.8441e+06 max  6.8441e+06 min
Histogram: 1 0 0 0 0 0 0 0 0 0
FullNghs:  1.13976e+07 ave 1.13976e+07 max 1.13976e+07 min
Histogram: 1 0 0 0 0 0 0 0 0 0

Total # of neighbors = 11397640
Ave neighs/atom = 569.882
Neighbor list builds = 293
Dangerous builds = 0
unfix           nvt

# ========== Production (NVT) ==========
print "========== H100 GPU Production run =========="
========== H100 GPU Production run ==========

fix             nvt all nvt temp 423.15 423.15 100.0

# Reset RDF for production run
uncompute       myrdf
compute         myrdf all rdf 200 1 1 1 2 2 2 cutoff 12.0
unfix           rdfout
fix             rdfout all ave/time 100 10 1000 c_myrdf[*] file rdf.dat mode vector

run             50000
Generated 0 of 1 mixed pair_coeff terms from geometric mixing rule
Neighbor list info ...
  update: every = 1 steps, delay = 0 steps, check = yes
  max neighbors/atom: 2000, page size: 100000
  master list distance cutoff = 14
  ghost atom cutoff = 14
  binsize = 4, bins = 19 19 19
  3 neighbor lists, perpetual/occasional/extra = 2 1 0
  (1) pair lj/cut, perpetual
      attributes: full, newton off, kokkos_device
      pair build: full/bin/kk/device
      stencil: full/bin/3d
      bin: kk/device
  (2) pair table, perpetual, copy from (1)
      attributes: full, newton off, kokkos_device
      pair build: copy/kk/device
      stencil: none
      bin: none
  (3) compute rdf, occasional
      attributes: half, newton off
      pair build: half/bin/atomonly/newtoff
      stencil: full/bin/3d
      bin: standard
Per MPI rank memory allocation (min/avg/max) = 12.07 | 12.07 | 12.07 Mbytes
   Step          Temp          PotEng         KinEng         TotEng         Press          Volume        Density          CPU      
     20000   420.30441     -41644.243      25055.7       -16588.543      26887.957      402592.25      6.2796667      0            
     21000   420.42581     -41819.443      25062.936     -16756.506      26736.796      402592.25      6.2796667      4.1535232    
     22000   424.62526     -41758.545      25313.279     -16445.266      26828.597      402592.25      6.2796667      8.3017215    
     23000   423.83026     -41700.974      25265.887     -16435.087      26856.317      402592.25      6.2796667      12.456921    
     24000   425.87056     -41897.947      25387.515     -16510.432      26732.256      402592.25      6.2796667      16.609193    
     25000   418.04304     -41645.451      24920.892     -16724.559      26874.812      402592.25      6.2796667      20.770738    
     26000   421.97431     -41871.494      25155.248     -16716.246      26700.711      402592.25      6.2796667      24.92283     
     27000   421.83288     -41634.206      25146.816     -16487.39       26899.136      402592.25      6.2796667      29.081983    
     28000   418.03622     -41839.512      24920.485     -16919.026      26715.71       402592.25      6.2796667      33.224289    
     29000   428.13901     -41772.229      25522.745     -16249.484      26832.035      402592.25      6.2796667      37.373438    
     30000   428.14771     -41558.851      25523.263     -16035.588      27032.766      402592.25      6.2796667      41.523071    
     31000   424.36758     -41839.985      25297.918     -16542.067      26747.885      402592.25      6.2796667      45.671628    
     32000   420.52521     -41846.258      25068.862     -16777.396      26706.888      402592.25      6.2796667      49.81149     
     33000   424.47872     -41651.788      25304.543     -16347.245      26930.782      402592.25      6.2796667      53.952333    
     34000   423.18432     -41507.775      25227.38      -16280.395      27034.287      402592.25      6.2796667      58.100259    
     35000   420.44463     -41729.446      25064.058     -16665.388      26826.516      402592.25      6.2796667      62.253608    
     36000   425.65466     -41795.928      25374.645     -16421.284      26776.968      402592.25      6.2796667      66.395114    
     37000   424.42052     -41933.581      25301.074     -16632.507      26664.987      402592.25      6.2796667      70.5351      
     38000   423.98269     -41764.983      25274.973     -16490.009      26820.748      402592.25      6.2796667      74.681937    
     39000   424.16285     -41687.191      25285.714     -16401.478      26895.1        402592.25      6.2796667      78.827322    
     40000   425.955       -41819.036      25392.549     -16426.487      26784.808      402592.25      6.2796667      82.979199    
     41000   427.24399     -41853.805      25469.39      -16384.415      26765.215      402592.25      6.2796667      87.121397    
     42000   425.39524     -41772.407      25359.18      -16413.227      26831.155      402592.25      6.2796667      91.275384    
     43000   429.01135     -41790.468      25574.748     -16215.72       26826.358      402592.25      6.2796667      95.413708    
     44000   421.53463     -41805.533      25129.037     -16676.497      26756.315      402592.25      6.2796667      99.556145    
     45000   425.11179     -41733.325      25342.283     -16391.042      26866.448      402592.25      6.2796667      103.70501    
     46000   425.16414     -41861.536      25345.404     -16516.132      26742.089      402592.25      6.2796667      107.85268    
     47000   429.9698      -42087.146      25631.884     -16455.262      26588.633      402592.25      6.2796667      111.9932     
     48000   423.30805     -41748.603      25234.756     -16513.846      26834.753      402592.25      6.2796667      116.13645    
     49000   421.31614     -42047.93       25116.012     -16931.918      26550.354      402592.25      6.2796667      120.28404    
     50000   425.32482     -41824.084      25354.982     -16469.101      26778.209      402592.25      6.2796667      124.44794    
     51000   422.24371     -41638.002      25171.307     -16466.695      26916.891      402592.25      6.2796667      128.60608    
     52000   428.56586     -41706.378      25548.191     -16158.187      26891.487      402592.25      6.2796667      132.75117    
     53000   424.89678     -41453.535      25329.465     -16124.07       27080.126      402592.25      6.2796667      136.89786    
     54000   425.0935      -41832.241      25341.193     -16491.049      26790.82       402592.25      6.2796667      141.03316    
     55000   425.2172      -41538.941      25348.566     -16190.375      27023.563      402592.25      6.2796667      145.18479    
     56000   426.53353     -41767.937      25427.037     -16340.899      26830.711      402592.25      6.2796667      149.32766    
     57000   418.56039     -41670.039      24951.733     -16718.306      26860.082      402592.25      6.2796667      153.47539    
     58000   423.52782     -41670.195      25247.857     -16422.337      26883.052      402592.25      6.2796667      157.61683    
     59000   421.54282     -41824.898      25129.525     -16695.373      26758.979      402592.25      6.2796667      161.75887    
     60000   424.50906     -41817.679      25306.352     -16511.327      26785.492      402592.25      6.2796667      165.90182    
     61000   427.26077     -41812.516      25470.391     -16342.125      26809.903      402592.25      6.2796667      170.04467    
     62000   426.98224     -41954.169      25453.786     -16500.382      26689.766      402592.25      6.2796667      174.18744    
     63000   424.12399     -41888.643      25283.397     -16605.246      26740.587      402592.25      6.2796667      178.32976    
     64000   426.127       -41600.995      25402.803     -16198.192      26961.923      402592.25      6.2796667      182.47805    
     65000   423.38309     -41612.955      25239.229     -16373.725      26940.637      402592.25      6.2796667      186.61846    
     66000   420.01057     -41664.233      25038.182     -16626.051      26856.694      402592.25      6.2796667      190.76863    
     67000   424.50394     -41827.303      25306.047     -16521.256      26767.633      402592.25      6.2796667      194.90548    
     68000   426.27655     -41994.018      25411.718     -16582.3        26637.743      402592.25      6.2796667      199.05602    
     69000   422.76953     -41655.008      25202.653     -16452.355      26902.601      402592.25      6.2796667      203.19828    
     70000   419.29747     -41790.324      24995.672     -16794.651      26748.005      402592.25      6.2796667      207.34139    
Loop time of 207.342 on 1 procs for 50000 steps with 20000 atoms

Performance: 41.670 ns/day, 0.576 hours/ns, 241.148 timesteps/s, 4.823 Matom-step/s
100.0% CPU use with 1 MPI tasks x 1 OpenMP threads

MPI task timing breakdown:
Section |  min time  |  avg time  |  max time  |%varavg| %total
---------------------------------------------------------------
Pair    | 25.286     | 25.286     | 25.286     |   0.0 | 12.20
Neigh   | 1.5515     | 1.5515     | 1.5515     |   0.0 |  0.75
Comm    | 1.2391     | 1.2391     | 1.2391     |   0.0 |  0.60
Output  | 0.017702   | 0.017702   | 0.017702   |   0.0 |  0.01
Modify  | 177.24     | 177.24     | 177.24     |   0.0 | 85.48
Other   |            | 2.007      |            |       |  0.97

Nlocal:          20000 ave       20000 max       20000 min
Histogram: 1 0 0 0 0 0 0 0 0 0
Nghost:          32437 ave       32437 max       32437 min
Histogram: 1 0 0 0 0 0 0 0 0 0
Neighs:    6.83789e+06 ave 6.83789e+06 max 6.83789e+06 min
Histogram: 1 0 0 0 0 0 0 0 0 0
FullNghs:  1.13991e+07 ave 1.13991e+07 max 1.13991e+07 min
Histogram: 1 0 0 0 0 0 0 0 0 0

Total # of neighbors = 11399108
Ave neighs/atom = 569.9554
Neighbor list builds = 974
Dangerous builds = 0
unfix           nvt

# ========== Finalize ==========
print "========== H100 GPU Simulation completed =========="
========== H100 GPU Simulation completed ==========

# Write restart file for next iteration (use fixed name to avoid shell command issues)
write_restart   outputs/restart.0.data
System init for write_restart ...
Generated 0 of 1 mixed pair_coeff terms from geometric mixing rule

# Final statistics
variable        density_final equal density
variable        temp_final equal temp
variable        press_final equal press

print "========================================="
=========================================
print "FINAL RESULTS:"
FINAL RESULTS:
print "  Density:     ${density_final} g/cm^3"
  Density:     6.27966666056994 g/cm^3
print "  Temperature: ${temp_final} K"
  Temperature: 419.297468432367 K
print "  Pressure:    ${press_final} bar"
  Pressure:    26748.0047649976 bar
print "========================================="
=========================================

print "RDF written to rdf.dat"
RDF written to rdf.dat
print "Restart file written to outputs/restart.0.data"
Restart file written to outputs/restart.0.data
Total wall time: 0:04:45
