LAMMPS (22 Jul 2025 - Update 2)
KOKKOS mode with Kokkos version 4.6.2 is enabled
  will use up to 1 GPU(s) per node
  using 1 OpenMP thread(s) per MPI task
package kokkos
# H100 GPU-Optimized LAMMPS input for EPSR simulation of EGaIn eutectic alloy
# Composition: Ga0.858In0.142
# Temperature: 150Â°C (423.15 K)
# Potential: LJ + Empirical Potential (table)
# GPU: Using KOKKOS for H100 (Hopper architecture)

# ========== KOKKOS Initialization (CRITICAL: Must be first) ==========
# CRITICAL FIX: newton off prevents KOKKOS errors on H100
# Note: pair_style table does not have /kk support, but will run on CPU while LJ runs on GPU
package         kokkos neigh full newton off

# ========== Initialization ==========
units           real
atom_style      atomic
boundary        p p p

# ========== Force field ==========
# Use hybrid/overlay to combine LJ (GPU-accelerated) and table (CPU)
# The -sf kk flag will automatically use lj/cut/kk while table runs on CPU
# NOTE: pair_style must be defined BEFORE read_data if data file contains Pair Coeffs section
pair_style      hybrid/overlay lj/cut 12.0 table linear 200

# ========== Read structure ==========
# Use LJ-equilibrated structure as initial configuration (more stable)
shell           mkdir -p outputs
# nocoeff skips Pair Coeffs section which is incompatible with hybrid/overlay
read_data       outputs/final_structure_lj_H100.data nocoeff
Reading data file ...
  orthogonal box = (0 0 0) to (73.839453 73.839453 73.839453)
  1 by 1 by 1 MPI processor grid
WARNING: Pair style lj/cut/kk in data file differs from currently defined pair style zero (src/read_data.cpp:811)
  reading atoms ...
  20000 atoms
  reading velocities ...
  20000 velocities
  read_data CPU = 0.097 seconds

# LJ potential (GPU-accelerated with -sf kk flag)
pair_coeff      1 1 lj/cut 0.430 2.70    # Ga-Ga
pair_coeff      2 2 lj/cut 0.430 3.11    # In-In
pair_coeff      1 2 lj/cut 0.430 2.905   # Ga-In

# Empirical potential (from table files - runs on CPU)
# Table format: r, U(r), F(r)
pair_coeff      1 1 table data/ep_GaGa.table EP_GAGA 12.0
pair_coeff      2 2 table data/ep_InIn.table EP_ININ 12.0
pair_coeff      1 2 table data/ep_GaIn.table EP_GAIN 12.0

# ========== Settings ==========
mass            1 69.723    # Ga
mass            2 114.818   # In

# Optimized neighbor list for GPU
neighbor        2.0 bin
neigh_modify    delay 0 every 1 check yes binsize 4.0

# ========== Initial velocity ==========
# Re-initialize velocities for this temperature
velocity        all create 423.15 12345 dist gaussian

# ========== Thermodynamic output ==========
thermo          1000
thermo_style    custom step temp pe ke etotal press vol density cpu

# ========== Quick minimization for stability ==========
print "========== Energy Minimization =========="
========== Energy Minimization ==========
minimize        1.0e-4 1.0e-6 1000 10000
Generated 0 of 1 mixed pair_coeff terms from geometric mixing rule
Neighbor list info ...
  update: every = 1 steps, delay = 0 steps, check = yes
  max neighbors/atom: 2000, page size: 100000
  master list distance cutoff = 14
  ghost atom cutoff = 14
  binsize = 4, bins = 19 19 19
  2 neighbor lists, perpetual/occasional/extra = 2 0 0
  (1) pair lj/cut, perpetual
      attributes: full, newton off, kokkos_device
      pair build: full/bin/kk/device
      stencil: full/bin/3d
      bin: kk/device
  (2) pair table, perpetual, copy from (1)
      attributes: full, newton off, kokkos_device
      pair build: copy/kk/device
      stencil: none
      bin: none
WARNING: Fix MINIMIZE/kk not compatible with sending data in Kokkos communication (src/KOKKOS/comm_kokkos.cpp:767)
WARNING: Fix with atom-based arrays not compatible with sending data in Kokkos communication, switching to classic exchange/border communication (src/KOKKOS/comm_kokkos.cpp:780)
WARNING: Fix MINIMIZE/kk not compatible with Kokkos sorting on device (src/KOKKOS/atom_kokkos.cpp:212)
WARNING: Fix with atom-based arrays not compatible with Kokkos sorting on device, switching to classic host sorting (src/KOKKOS/atom_kokkos.cpp:218)
Per MPI rank memory allocation (min/avg/max) = 13.71 | 13.71 | 13.71 Mbytes
   Step          Temp          PotEng         KinEng         TotEng         Press          Volume        Density          CPU      
         0   423.15        -728110.65      25225.334     -702885.32      36658.952      402592.25      6.2796667      0            
        28   423.15        -750662.83      25225.334     -725437.5       27043.515      402592.25      6.2796667      0.045066105  
Loop time of 0.0450734 on 1 procs for 28 steps with 20000 atoms

98.2% CPU use with 1 MPI tasks x 1 OpenMP threads

Minimization stats:
  Stopping criterion = energy tolerance
  Energy initial, next-to-last, final = 
     -728110.653562286  -750589.560859118  -750662.832319028
  Force two-norm initial, final = 1395.6417 68.629115
  Force max component initial, final = 43.083463 3.8180018
  Final line search alpha, max atom move = 0.010559722 0.040317039
  Iterations, force evaluations = 28 28

MPI task timing breakdown:
Section |  min time  |  avg time  |  max time  |%varavg| %total
---------------------------------------------------------------
Pair    | 0.034841   | 0.034841   | 0.034841   |   0.0 | 77.30
Neigh   | 0.0012651  | 0.0012651  | 0.0012651  |   0.0 |  2.81
Comm    | 0.002665   | 0.002665   | 0.002665   |   0.0 |  5.91
Output  | 0          | 0          | 0          |   0.0 |  0.00
Modify  | 0          | 0          | 0          |   0.0 |  0.00
Other   |            | 0.006302   |            |       | 13.98

Nlocal:          20000 ave       20000 max       20000 min
Histogram: 1 0 0 0 0 0 0 0 0 0
Nghost:          32454 ave       32454 max       32454 min
Histogram: 1 0 0 0 0 0 0 0 0 0
Neighs:              0 ave           0 max           0 min
Histogram: 1 0 0 0 0 0 0 0 0 0
FullNghs:  1.14143e+07 ave 1.14143e+07 max 1.14143e+07 min
Histogram: 1 0 0 0 0 0 0 0 0 0

Total # of neighbors = 11414274
Ave neighs/atom = 570.7137
Neighbor list builds = 1
Dangerous builds = 0
reset_timestep  0

# ========== RDF computation ==========
# Compute total and partial pair distribution functions
compute         myrdf all rdf 200 1 1 1 2 2 2 cutoff 12.0

# Time-average RDF output
fix             rdfout all ave/time 100 10 1000 c_myrdf[*] file rdf.dat mode vector

# ========== Equilibration (NVT) ==========
print "========== H100 GPU Equilibration =========="
========== H100 GPU Equilibration ==========

# Start with small timestep for stability
timestep        0.5

fix             nvt all nvt temp 423.15 423.15 100.0
run             5000
Generated 0 of 1 mixed pair_coeff terms from geometric mixing rule
Neighbor list info ...
  update: every = 1 steps, delay = 0 steps, check = yes
  max neighbors/atom: 2000, page size: 100000
  master list distance cutoff = 14
  ghost atom cutoff = 14
  binsize = 4, bins = 19 19 19
  3 neighbor lists, perpetual/occasional/extra = 2 1 0
  (1) pair lj/cut, perpetual
      attributes: full, newton off, kokkos_device
      pair build: full/bin/kk/device
      stencil: full/bin/3d
      bin: kk/device
  (2) pair table, perpetual, copy from (1)
      attributes: full, newton off, kokkos_device
      pair build: copy/kk/device
      stencil: none
      bin: none
  (3) compute rdf, occasional
      attributes: half, newton off
      pair build: half/bin/atomonly/newtoff
      stencil: full/bin/3d
      bin: standard
Per MPI rank memory allocation (min/avg/max) = 12.06 | 12.06 | 12.06 Mbytes
   Step          Temp          PotEng         KinEng         TotEng         Press          Volume        Density          CPU      
         0   423.15        -750662.83      25225.334     -725437.5       27043.515      402592.25      6.2796667      0            
      1000   346.67118     -735854         20666.186     -715187.82      35641.167      402592.25      6.2796667      3.0783011    
      2000   434.77084     -731067.08      25918.09      -705148.99      39364.758      402592.25      6.2796667      6.150987     
      3000   427.94168     -730926.63      25510.982     -705415.65      39258.583      402592.25      6.2796667      9.0229231    
      4000   421.22206     -731108.73      25110.404     -705998.32      39063.528      402592.25      6.2796667      12.090941    
      5000   419.64114     -731187.24      25016.16      -706171.08      39155.156      402592.25      6.2796667      15.171554    
Loop time of 15.1716 on 1 procs for 5000 steps with 20000 atoms

Performance: 14.237 ns/day, 1.686 hours/ns, 329.564 timesteps/s, 6.591 Matom-step/s
99.9% CPU use with 1 MPI tasks x 1 OpenMP threads

MPI task timing breakdown:
Section |  min time  |  avg time  |  max time  |%varavg| %total
---------------------------------------------------------------
Pair    | 2.5025     | 2.5025     | 2.5025     |   0.0 | 16.49
Neigh   | 0.037751   | 0.037751   | 0.037751   |   0.0 |  0.25
Comm    | 0.051297   | 0.051297   | 0.051297   |   0.0 |  0.34
Output  | 0.0018252  | 0.0018252  | 0.0018252  |   0.0 |  0.01
Modify  | 12.408     | 12.408     | 12.408     |   0.0 | 81.78
Other   |            | 0.1706     |            |       |  1.12

Nlocal:          20000 ave       20000 max       20000 min
Histogram: 1 0 0 0 0 0 0 0 0 0
Nghost:          32486 ave       32486 max       32486 min
Histogram: 1 0 0 0 0 0 0 0 0 0
Neighs:    6.85596e+06 ave 6.85596e+06 max 6.85596e+06 min
Histogram: 1 0 0 0 0 0 0 0 0 0
FullNghs:   1.1421e+07 ave  1.1421e+07 max  1.1421e+07 min
Histogram: 1 0 0 0 0 0 0 0 0 0

Total # of neighbors = 11421010
Ave neighs/atom = 571.0505
Neighbor list builds = 23
Dangerous builds = 0
unfix           nvt

# Increase timestep to normal
timestep        2.0

fix             nvt all nvt temp 423.15 423.15 100.0
run             15000
Generated 0 of 1 mixed pair_coeff terms from geometric mixing rule
Per MPI rank memory allocation (min/avg/max) = 38.38 | 38.38 | 38.38 Mbytes
   Step          Temp          PotEng         KinEng         TotEng         Press          Volume        Density          CPU      
      5000   419.64114     -731187.24      25016.16      -706171.08      39155.156      402592.25      6.2796667      0            
      6000   421.44501     -731431.18      25123.694     -706307.48      39009.814      402592.25      6.2796667      4.1655257    
      7000   420.9769      -731079.85      25095.788     -705984.06      39309.358      402592.25      6.2796667      8.3417014    
      8000   423.46528     -731327.86      25244.129     -706083.73      39129.83       402592.25      6.2796667      12.516621    
      9000   419.98802     -731473.46      25036.838     -706436.62      38978.863      402592.25      6.2796667      16.681658    
     10000   421.59426     -731194.65      25132.591     -706062.06      39285.476      402592.25      6.2796667      20.840244    
     11000   418.53728     -731335.14      24950.355     -706384.79      39021.392      402592.25      6.2796667      25.002583    
     12000   420.47956     -731424.85      25066.141     -706358.71      39044.512      402592.25      6.2796667      29.160177    
     13000   425.65757     -731087.91      25374.819     -705713.09      39094.348      402592.25      6.2796667      33.318481    
     14000   423.29164     -731166.44      25233.778     -705932.66      39065.251      402592.25      6.2796667      37.485976    
     15000   425.73826     -731168.94      25379.628     -705789.32      39063.974      402592.25      6.2796667      41.649888    
     16000   422.37175     -731402.54      25178.94      -706223.6       38987.224      402592.25      6.2796667      45.812568    
     17000   421.05195     -731535.24      25100.263     -706434.97      39025.277      402592.25      6.2796667      49.973509    
     18000   423.55274     -731353.35      25249.343     -706104.01      38936.791      402592.25      6.2796667      54.138323    
     19000   417.71016     -731199.64      24901.048     -706298.59      39131.931      402592.25      6.2796667      58.31141     
     20000   420.47172     -731143.08      25065.673     -706077.41      39320.664      402592.25      6.2796667      62.479166    
Loop time of 62.4792 on 1 procs for 15000 steps with 20000 atoms

Performance: 41.486 ns/day, 0.579 hours/ns, 240.080 timesteps/s, 4.802 Matom-step/s
100.0% CPU use with 1 MPI tasks x 1 OpenMP threads

MPI task timing breakdown:
Section |  min time  |  avg time  |  max time  |%varavg| %total
---------------------------------------------------------------
Pair    | 7.5983     | 7.5983     | 7.5983     |   0.0 | 12.16
Neigh   | 0.46687    | 0.46687    | 0.46687    |   0.0 |  0.75
Comm    | 0.37535    | 0.37535    | 0.37535    |   0.0 |  0.60
Output  | 0.005541   | 0.005541   | 0.005541   |   0.0 |  0.01
Modify  | 53.431     | 53.431     | 53.431     |   0.0 | 85.52
Other   |            | 0.6022     |            |       |  0.96

Nlocal:          20000 ave       20000 max       20000 min
Histogram: 1 0 0 0 0 0 0 0 0 0
Nghost:          32353 ave       32353 max       32353 min
Histogram: 1 0 0 0 0 0 0 0 0 0
Neighs:    6.85602e+06 ave 6.85602e+06 max 6.85602e+06 min
Histogram: 1 0 0 0 0 0 0 0 0 0
FullNghs:  1.14173e+07 ave 1.14173e+07 max 1.14173e+07 min
Histogram: 1 0 0 0 0 0 0 0 0 0

Total # of neighbors = 11417264
Ave neighs/atom = 570.8632
Neighbor list builds = 292
Dangerous builds = 0
unfix           nvt

# ========== Production (NVT) ==========
print "========== H100 GPU Production run =========="
========== H100 GPU Production run ==========

fix             nvt all nvt temp 423.15 423.15 100.0

# Reset RDF for production run
uncompute       myrdf
compute         myrdf all rdf 200 1 1 1 2 2 2 cutoff 12.0
unfix           rdfout
fix             rdfout all ave/time 100 10 1000 c_myrdf[*] file rdf.dat mode vector

run             50000
Generated 0 of 1 mixed pair_coeff terms from geometric mixing rule
Neighbor list info ...
  update: every = 1 steps, delay = 0 steps, check = yes
  max neighbors/atom: 2000, page size: 100000
  master list distance cutoff = 14
  ghost atom cutoff = 14
  binsize = 4, bins = 19 19 19
  3 neighbor lists, perpetual/occasional/extra = 2 1 0
  (1) pair lj/cut, perpetual
      attributes: full, newton off, kokkos_device
      pair build: full/bin/kk/device
      stencil: full/bin/3d
      bin: kk/device
  (2) pair table, perpetual, copy from (1)
      attributes: full, newton off, kokkos_device
      pair build: copy/kk/device
      stencil: none
      bin: none
  (3) compute rdf, occasional
      attributes: half, newton off
      pair build: half/bin/atomonly/newtoff
      stencil: full/bin/3d
      bin: standard
Per MPI rank memory allocation (min/avg/max) = 12.06 | 12.06 | 12.06 Mbytes
   Step          Temp          PotEng         KinEng         TotEng         Press          Volume        Density          CPU      
     20000   420.47172     -731143.08      25065.673     -706077.41      39320.664      402592.25      6.2796667      0            
     21000   428.21341     -731286.63      25527.18      -705759.45      39177.1        402592.25      6.2796667      4.1780826    
     22000   423.80951     -731193.62      25264.649     -705928.97      39158.212      402592.25      6.2796667      8.3466376    
     23000   428.99256     -731178.04      25573.628     -705604.41      39259.15       402592.25      6.2796667      12.516278    
     24000   425.63312     -731169.24      25373.361     -705795.87      39266.031      402592.25      6.2796667      16.674858    
     25000   424.73375     -730856.92      25319.747     -705537.18      39180.979      402592.25      6.2796667      20.837442    
     26000   426.17472     -731051.94      25405.648     -705646.29      39177.417      402592.25      6.2796667      24.99909     
     27000   422.78122     -731354.62      25203.35      -706151.27      39031.059      402592.25      6.2796667      29.170157    
     28000   421.80823     -731411.32      25145.347     -706265.98      39058.582      402592.25      6.2796667      33.331939    
     29000   421.77628     -731103.27      25143.442     -705959.83      39215.931      402592.25      6.2796667      37.502592    
     30000   421.36662     -730978.39      25119.021     -705859.37      39213.988      402592.25      6.2796667      41.662214    
     31000   424.10332     -731198.2       25282.164     -705916.03      39255.246      402592.25      6.2796667      45.831169    
     32000   425.7522      -731449.63      25380.46      -706069.17      39240.861      402592.25      6.2796667      49.992236    
     33000   424.09578     -731334.01      25281.715     -706052.3       38998.862      402592.25      6.2796667      54.141963    
     34000   417.36655     -731259.56      24880.564     -706378.99      38936.872      402592.25      6.2796667      58.316493    
     35000   421.97723     -731084.95      25155.421     -705929.53      39195.88       402592.25      6.2796667      62.485477    
     36000   425.17143     -731432.69      25345.838     -706086.85      39059.74       402592.25      6.2796667      66.648341    
     37000   417.17639     -731051.22      24869.228     -706181.99      39095.716      402592.25      6.2796667      70.813781    
     38000   422.16145     -731467.87      25166.403     -706301.46      38810.393      402592.25      6.2796667      74.983689    
     39000   425.65003     -731002.7       25374.369     -705628.33      39210.936      402592.25      6.2796667      79.15997     
     40000   422.89502     -731273.85      25210.134     -706063.71      39234.758      402592.25      6.2796667      83.330977    
     41000   425.63917     -730807.87      25373.721     -705434.15      39282.143      402592.25      6.2796667      87.494287    
     42000   422.71354     -731291.11      25199.315     -706091.8       39159.695      402592.25      6.2796667      91.65416     
     43000   423.18725     -730838.43      25227.555     -705610.87      39301.565      402592.25      6.2796667      95.822833    
     44000   423.32903     -731326.26      25236.006     -706090.26      39005.308      402592.25      6.2796667      99.981805    
     45000   425.66967     -731280.35      25375.54      -705904.81      39068.968      402592.25      6.2796667      104.14859    
     46000   423.66065     -731181.22      25255.775     -705925.45      39176.617      402592.25      6.2796667      108.31832    
     47000   424.05679     -731174.27      25279.391     -705894.88      39210.508      402592.25      6.2796667      112.49498    
     48000   423.02571     -730772.39      25217.925     -705554.46      39281.503      402592.25      6.2796667      116.66642    
     49000   422.31638     -731290.7       25175.639     -706115.06      39067.21       402592.25      6.2796667      120.82883    
     50000   419.71575     -731475.34      25020.608     -706454.73      38969.127      402592.25      6.2796667      124.99976    
     51000   420.6232      -731171.87      25074.703     -706097.17      39139.469      402592.25      6.2796667      129.1606     
     52000   422.37846     -730958.29      25179.34      -705778.95      39148.335      402592.25      6.2796667      133.32452    
     53000   424.33929     -731018.81      25296.231     -705722.58      39114.829      402592.25      6.2796667      137.49583    
     54000   423.72685     -731392.9       25259.722     -706133.18      39070.065      402592.25      6.2796667      141.65921    
     55000   422.84468     -731388.65      25207.133     -706181.51      39052.626      402592.25      6.2796667      145.82654    
     56000   420.68046     -731267.12      25078.117     -706189         39093.726      402592.25      6.2796667      149.9837     
     57000   425.86323     -731477.85      25387.079     -706090.77      39038.125      402592.25      6.2796667      154.15096    
     58000   423.13082     -731176.48      25224.191     -705952.29      39181.518      402592.25      6.2796667      158.31638    
     59000   425.06996     -731117.73      25339.789     -705777.94      39106.044      402592.25      6.2796667      162.48707    
     60000   424.90719     -731521.83      25330.086     -706191.74      39086.631      402592.25      6.2796667      166.6561     
     61000   421.93217     -731425.04      25152.735     -706272.31      39127.023      402592.25      6.2796667      170.81999    
     62000   422.01298     -731348.39      25157.553     -706190.84      39065.421      402592.25      6.2796667      174.98325    
     63000   425.73714     -731266.29      25379.562     -705886.73      39107.133      402592.25      6.2796667      179.1459     
     64000   424.1763      -731454.75      25286.515     -706168.23      39144.73       402592.25      6.2796667      183.31293    
     65000   424.43908     -731467.51      25302.18      -706165.33      38980.878      402592.25      6.2796667      187.48172    
     66000   426.61443     -730902.43      25431.86      -705470.57      39183.255      402592.25      6.2796667      191.64106    
     67000   421.84546     -731094.15      25147.566     -705946.58      39152.493      402592.25      6.2796667      195.81651    
     68000   423.29164     -731434.68      25233.778     -706200.9       38956.868      402592.25      6.2796667      199.98369    
     69000   420.74585     -731308.6       25082.015     -706226.59      39053.777      402592.25      6.2796667      204.14381    
     70000   421.12844     -731283.91      25104.822     -706179.08      39050.713      402592.25      6.2796667      208.31139    
Loop time of 208.312 on 1 procs for 50000 steps with 20000 atoms

Performance: 41.476 ns/day, 0.579 hours/ns, 240.025 timesteps/s, 4.801 Matom-step/s
100.0% CPU use with 1 MPI tasks x 1 OpenMP threads

MPI task timing breakdown:
Section |  min time  |  avg time  |  max time  |%varavg| %total
---------------------------------------------------------------
Pair    | 25.311     | 25.311     | 25.311     |   0.0 | 12.15
Neigh   | 1.5665     | 1.5665     | 1.5665     |   0.0 |  0.75
Comm    | 1.2608     | 1.2608     | 1.2608     |   0.0 |  0.61
Output  | 0.018173   | 0.018173   | 0.018173   |   0.0 |  0.01
Modify  | 178.15     | 178.15     | 178.15     |   0.0 | 85.52
Other   |            | 2.006      |            |       |  0.96

Nlocal:          20000 ave       20000 max       20000 min
Histogram: 1 0 0 0 0 0 0 0 0 0
Nghost:          32423 ave       32423 max       32423 min
Histogram: 1 0 0 0 0 0 0 0 0 0
Neighs:    6.85245e+06 ave 6.85245e+06 max 6.85245e+06 min
Histogram: 1 0 0 0 0 0 0 0 0 0
FullNghs:  1.14202e+07 ave 1.14202e+07 max 1.14202e+07 min
Histogram: 1 0 0 0 0 0 0 0 0 0

Total # of neighbors = 11420190
Ave neighs/atom = 571.0095
Neighbor list builds = 981
Dangerous builds = 0
unfix           nvt

# ========== Finalize ==========
print "========== H100 GPU Simulation completed =========="
========== H100 GPU Simulation completed ==========

# Write restart file for next iteration (use fixed name to avoid shell command issues)
write_restart   outputs/restart.0.data
System init for write_restart ...
Generated 0 of 1 mixed pair_coeff terms from geometric mixing rule

# Final statistics
variable        density_final equal density
variable        temp_final equal temp
variable        press_final equal press

print "========================================="
=========================================
print "FINAL RESULTS:"
FINAL RESULTS:
print "  Density:     ${density_final} g/cm^3"
  Density:     6.27966666056994 g/cm^3
print "  Temperature: ${temp_final} K"
  Temperature: 421.128435390455 K
print "  Pressure:    ${press_final} bar"
  Pressure:    39050.7127082073 bar
print "========================================="
=========================================

print "RDF written to rdf.dat"
RDF written to rdf.dat
print "Restart file written to outputs/restart.0.data"
Restart file written to outputs/restart.0.data
Total wall time: 0:04:46
