LAMMPS (22 Jul 2025 - Update 2)
KOKKOS mode with Kokkos version 4.6.2 is enabled
  will use up to 1 GPU(s) per node
  using 1 OpenMP thread(s) per MPI task
package kokkos
# H100 GPU-Optimized LAMMPS input for EPSR simulation of EGaIn eutectic alloy
# Composition: Ga0.858In0.142
# Temperature: 150Â°C (423.15 K)
# Potential: LJ + Empirical Potential (table)
# GPU: Using KOKKOS for H100 (Hopper architecture)

# ========== KOKKOS Initialization (CRITICAL: Must be first) ==========
# CRITICAL FIX: newton off prevents KOKKOS errors on H100
# Note: pair_style table does not have /kk support, but will run on CPU while LJ runs on GPU
package         kokkos neigh full newton off

# ========== Initialization ==========
units           real
atom_style      atomic
boundary        p p p

# ========== Force field ==========
# Use hybrid/overlay to combine LJ (GPU-accelerated) and table (CPU)
# The -sf kk flag will automatically use lj/cut/kk while table runs on CPU
# NOTE: pair_style must be defined BEFORE read_data if data file contains Pair Coeffs section
pair_style      hybrid/overlay lj/cut 12.0 table linear 200

# ========== Read structure ==========
# Use LJ-equilibrated structure as initial configuration (more stable)
shell           mkdir -p outputs
# nocoeff skips Pair Coeffs section which is incompatible with hybrid/overlay
read_data       outputs/final_structure_lj_H100.data nocoeff
Reading data file ...
  orthogonal box = (0 0 0) to (73.839453 73.839453 73.839453)
  1 by 1 by 1 MPI processor grid
WARNING: Pair style lj/cut/kk in data file differs from currently defined pair style zero (src/read_data.cpp:811)
  reading atoms ...
  20000 atoms
  reading velocities ...
  20000 velocities
  read_data CPU = 0.096 seconds

# LJ potential (GPU-accelerated with -sf kk flag)
pair_coeff      1 1 lj/cut 0.430 2.70    # Ga-Ga
pair_coeff      2 2 lj/cut 0.430 3.11    # In-In
pair_coeff      1 2 lj/cut 0.430 2.905   # Ga-In

# Empirical potential (from table files - runs on CPU)
# Table format: r, U(r), F(r)
pair_coeff      1 1 table data/ep_GaGa.table EP_GAGA 12.0
pair_coeff      2 2 table data/ep_InIn.table EP_ININ 12.0
pair_coeff      1 2 table data/ep_GaIn.table EP_GAIN 12.0

# ========== Settings ==========
mass            1 69.723    # Ga
mass            2 114.818   # In

# Optimized neighbor list for GPU
neighbor        2.0 bin
neigh_modify    delay 0 every 1 check yes binsize 4.0

# ========== Initial velocity ==========
# Re-initialize velocities for this temperature
velocity        all create 423.15 12345 dist gaussian

# ========== Thermodynamic output ==========
thermo          1000
thermo_style    custom step temp pe ke etotal press vol density cpu

# ========== Quick minimization for stability ==========
print "========== Energy Minimization =========="
========== Energy Minimization ==========
minimize        1.0e-4 1.0e-6 1000 10000
Generated 0 of 1 mixed pair_coeff terms from geometric mixing rule
Neighbor list info ...
  update: every = 1 steps, delay = 0 steps, check = yes
  max neighbors/atom: 2000, page size: 100000
  master list distance cutoff = 14
  ghost atom cutoff = 14
  binsize = 4, bins = 19 19 19
  2 neighbor lists, perpetual/occasional/extra = 2 0 0
  (1) pair lj/cut, perpetual
      attributes: full, newton off, kokkos_device
      pair build: full/bin/kk/device
      stencil: full/bin/3d
      bin: kk/device
  (2) pair table, perpetual, copy from (1)
      attributes: full, newton off, kokkos_device
      pair build: copy/kk/device
      stencil: none
      bin: none
WARNING: Fix MINIMIZE/kk not compatible with sending data in Kokkos communication (src/KOKKOS/comm_kokkos.cpp:767)
WARNING: Fix with atom-based arrays not compatible with sending data in Kokkos communication, switching to classic exchange/border communication (src/KOKKOS/comm_kokkos.cpp:780)
WARNING: Fix MINIMIZE/kk not compatible with Kokkos sorting on device (src/KOKKOS/atom_kokkos.cpp:212)
WARNING: Fix with atom-based arrays not compatible with Kokkos sorting on device, switching to classic host sorting (src/KOKKOS/atom_kokkos.cpp:218)
Per MPI rank memory allocation (min/avg/max) = 13.71 | 13.71 | 13.71 Mbytes
   Step          Temp          PotEng         KinEng         TotEng         Press          Volume        Density          CPU      
         0   423.15        -481037.26      25225.334     -455811.93      32530.691      402592.25      6.2796667      0            
        40   423.15        -503649.85      25225.334     -478424.51      20640.619      402592.25      6.2796667      0.061368688  
Loop time of 0.0613749 on 1 procs for 40 steps with 20000 atoms

100.1% CPU use with 1 MPI tasks x 1 OpenMP threads

Minimization stats:
  Stopping criterion = energy tolerance
  Energy initial, next-to-last, final = 
     -481037.262719636  -503613.522158911    -503649.8466152
  Force two-norm initial, final = 1444.3839 54.11835
  Force max component initial, final = 42.648058 3.7340581
  Final line search alpha, max atom move = 0.0095290628 0.035582075
  Iterations, force evaluations = 40 40

MPI task timing breakdown:
Section |  min time  |  avg time  |  max time  |%varavg| %total
---------------------------------------------------------------
Pair    | 0.049272   | 0.049272   | 0.049272   |   0.0 | 80.28
Neigh   | 0.0012671  | 0.0012671  | 0.0012671  |   0.0 |  2.06
Comm    | 0.0025612  | 0.0025612  | 0.0025612  |   0.0 |  4.17
Output  | 0          | 0          | 0          |   0.0 |  0.00
Modify  | 0          | 0          | 0          |   0.0 |  0.00
Other   |            | 0.008274   |            |       | 13.48

Nlocal:          20000 ave       20000 max       20000 min
Histogram: 1 0 0 0 0 0 0 0 0 0
Nghost:          32475 ave       32475 max       32475 min
Histogram: 1 0 0 0 0 0 0 0 0 0
Neighs:              0 ave           0 max           0 min
Histogram: 1 0 0 0 0 0 0 0 0 0
FullNghs:  1.14163e+07 ave 1.14163e+07 max 1.14163e+07 min
Histogram: 1 0 0 0 0 0 0 0 0 0

Total # of neighbors = 11416306
Ave neighs/atom = 570.8153
Neighbor list builds = 1
Dangerous builds = 0
reset_timestep  0

# ========== RDF computation ==========
# Compute total and partial pair distribution functions
compute         myrdf all rdf 200 1 1 1 2 2 2 cutoff 12.0

# Time-average RDF output
fix             rdfout all ave/time 100 10 1000 c_myrdf[*] file rdf.dat mode vector

# ========== Equilibration (NVT) ==========
print "========== H100 GPU Equilibration =========="
========== H100 GPU Equilibration ==========

# Start with small timestep for stability
timestep        0.5

fix             nvt all nvt temp 423.15 423.15 100.0
run             5000
Generated 0 of 1 mixed pair_coeff terms from geometric mixing rule
Neighbor list info ...
  update: every = 1 steps, delay = 0 steps, check = yes
  max neighbors/atom: 2000, page size: 100000
  master list distance cutoff = 14
  ghost atom cutoff = 14
  binsize = 4, bins = 19 19 19
  3 neighbor lists, perpetual/occasional/extra = 2 1 0
  (1) pair lj/cut, perpetual
      attributes: full, newton off, kokkos_device
      pair build: full/bin/kk/device
      stencil: full/bin/3d
      bin: kk/device
  (2) pair table, perpetual, copy from (1)
      attributes: full, newton off, kokkos_device
      pair build: copy/kk/device
      stencil: none
      bin: none
  (3) compute rdf, occasional
      attributes: half, newton off
      pair build: half/bin/atomonly/newtoff
      stencil: full/bin/3d
      bin: standard
Per MPI rank memory allocation (min/avg/max) = 12.06 | 12.06 | 12.06 Mbytes
   Step          Temp          PotEng         KinEng         TotEng         Press          Volume        Density          CPU      
         0   423.15        -503649.85      25225.334     -478424.51      20640.619      402592.25      6.2796667      0            
      1000   338.36522     -487895.84      20171.04      -467724.8       30300.438      402592.25      6.2796667      2.8765595    
      2000   434.93046     -483146.85      25927.605     -457219.24      34328.466      402592.25      6.2796667      5.9525792    
      3000   425.1109      -483765.25      25342.229     -458423.02      33857.181      402592.25      6.2796667      9.0288379    
      4000   421.76889     -483200.98      25143.002     -458057.97      34074.104      402592.25      6.2796667      12.090212    
      5000   420.30304     -483278.83      25055.618     -458223.21      33944.14       402592.25      6.2796667      14.961468    
Loop time of 14.9615 on 1 procs for 5000 steps with 20000 atoms

Performance: 14.437 ns/day, 1.662 hours/ns, 334.192 timesteps/s, 6.684 Matom-step/s
99.9% CPU use with 1 MPI tasks x 1 OpenMP threads

MPI task timing breakdown:
Section |  min time  |  avg time  |  max time  |%varavg| %total
---------------------------------------------------------------
Pair    | 2.511      | 2.511      | 2.511      |   0.0 | 16.78
Neigh   | 0.035483   | 0.035483   | 0.035483   |   0.0 |  0.24
Comm    | 0.049075   | 0.049075   | 0.049075   |   0.0 |  0.33
Output  | 0.0017763  | 0.0017763  | 0.0017763  |   0.0 |  0.01
Modify  | 12.185     | 12.185     | 12.185     |   0.0 | 81.44
Other   |            | 0.1792     |            |       |  1.20

Nlocal:          20000 ave       20000 max       20000 min
Histogram: 1 0 0 0 0 0 0 0 0 0
Nghost:          32505 ave       32505 max       32505 min
Histogram: 1 0 0 0 0 0 0 0 0 0
Neighs:    6.85605e+06 ave 6.85605e+06 max 6.85605e+06 min
Histogram: 1 0 0 0 0 0 0 0 0 0
FullNghs:  1.14207e+07 ave 1.14207e+07 max 1.14207e+07 min
Histogram: 1 0 0 0 0 0 0 0 0 0

Total # of neighbors = 11420724
Ave neighs/atom = 571.0362
Neighbor list builds = 22
Dangerous builds = 0
unfix           nvt

# Increase timestep to normal
timestep        2.0

fix             nvt all nvt temp 423.15 423.15 100.0
run             15000
Generated 0 of 1 mixed pair_coeff terms from geometric mixing rule
Per MPI rank memory allocation (min/avg/max) = 38.39 | 38.39 | 38.39 Mbytes
   Step          Temp          PotEng         KinEng         TotEng         Press          Volume        Density          CPU      
      5000   420.30304     -483278.83      25055.618     -458223.21      33944.14       402592.25      6.2796667      0            
      6000   421.43176     -483552.43      25122.905     -458429.52      33839.343      402592.25      6.2796667      4.1643188    
      7000   424.66893     -483191.35      25315.882     -457875.47      34005.95       402592.25      6.2796667      8.3254008    
      8000   422.64517     -483239.19      25195.239     -458043.95      34103.322      402592.25      6.2796667      12.491867    
      9000   427.37901     -483252.12      25477.439     -457774.68      34146.55       402592.25      6.2796667      16.662315    
     10000   422.75222     -483256.23      25201.621     -458054.61      33913.009      402592.25      6.2796667      20.823086    
     11000   421.87874     -483295.03      25149.55      -458145.48      34121.085      402592.25      6.2796667      24.989758    
     12000   425.08041     -483389.41      25340.412     -458049         34111.025      402592.25      6.2796667      29.15557     
     13000   424.0812      -483135.87      25280.846     -457855.02      34194.925      402592.25      6.2796667      33.310944    
     14000   420.63034     -483118.2       25075.129     -458043.07      34094.174      402592.25      6.2796667      37.480863    
     15000   420.01858     -483562.04      25038.66      -458523.38      33996.04       402592.25      6.2796667      41.62887     
     16000   419.10384     -483350.41      24984.13      -458366.28      33991.108      402592.25      6.2796667      45.797765    
     17000   423.11223     -483289.53      25223.082     -458066.45      34072.308      402592.25      6.2796667      49.96447     
     18000   427.79648     -483253.05      25502.326     -457750.72      34162.782      402592.25      6.2796667      54.120731    
     19000   423.70962     -483242.78      25258.695     -457984.09      34061.922      402592.25      6.2796667      58.280414    
     20000   423.60336     -483680.38      25252.361     -458428.02      33878.796      402592.25      6.2796667      62.435509    
Loop time of 62.4355 on 1 procs for 15000 steps with 20000 atoms

Performance: 41.515 ns/day, 0.578 hours/ns, 240.248 timesteps/s, 4.805 Matom-step/s
100.0% CPU use with 1 MPI tasks x 1 OpenMP threads

MPI task timing breakdown:
Section |  min time  |  avg time  |  max time  |%varavg| %total
---------------------------------------------------------------
Pair    | 7.5937     | 7.5937     | 7.5937     |   0.0 | 12.16
Neigh   | 0.4651     | 0.4651     | 0.4651     |   0.0 |  0.74
Comm    | 0.37643    | 0.37643    | 0.37643    |   0.0 |  0.60
Output  | 0.005388   | 0.005388   | 0.005388   |   0.0 |  0.01
Modify  | 53.362     | 53.362     | 53.362     |   0.0 | 85.47
Other   |            | 0.633      |            |       |  1.01

Nlocal:          20000 ave       20000 max       20000 min
Histogram: 1 0 0 0 0 0 0 0 0 0
Nghost:          32447 ave       32447 max       32447 min
Histogram: 1 0 0 0 0 0 0 0 0 0
Neighs:    6.85528e+06 ave 6.85528e+06 max 6.85528e+06 min
Histogram: 1 0 0 0 0 0 0 0 0 0
FullNghs:  1.14227e+07 ave 1.14227e+07 max 1.14227e+07 min
Histogram: 1 0 0 0 0 0 0 0 0 0

Total # of neighbors = 11422670
Ave neighs/atom = 571.1335
Neighbor list builds = 292
Dangerous builds = 0
