LAMMPS (22 Jul 2025 - Update 2)
KOKKOS mode with Kokkos version 4.6.2 is enabled
  will use up to 1 GPU(s) per node
  using 1 OpenMP thread(s) per MPI task
package kokkos
# H100 GPU-Optimized LAMMPS input for EPSR simulation of EGaIn eutectic alloy
# Composition: Ga0.858In0.142
# Temperature: 150Â°C (423.15 K)
# Potential: LJ + Empirical Potential (table)
# GPU: Using KOKKOS for H100 (Hopper architecture)

# ========== KOKKOS Initialization (CRITICAL: Must be first) ==========
# CRITICAL FIX: newton off prevents KOKKOS errors on H100
# Note: pair_style table does not have /kk support, but will run on CPU while LJ runs on GPU
package         kokkos neigh full newton off

# ========== Initialization ==========
units           real
atom_style      atomic
boundary        p p p

# ========== Force field ==========
# Use hybrid/overlay to combine LJ (GPU-accelerated) and table (CPU)
# The -sf kk flag will automatically use lj/cut/kk while table runs on CPU
# NOTE: pair_style must be defined BEFORE read_data if data file contains Pair Coeffs section
pair_style      hybrid/overlay lj/cut 12.0 table linear 200

# ========== Read structure ==========
# Use LJ-equilibrated structure as initial configuration (more stable)
shell           mkdir -p outputs
# nocoeff skips Pair Coeffs section which is incompatible with hybrid/overlay
read_data       outputs/final_structure_lj_H100.data nocoeff
Reading data file ...
  orthogonal box = (0 0 0) to (73.839453 73.839453 73.839453)
  1 by 1 by 1 MPI processor grid
WARNING: Pair style lj/cut/kk in data file differs from currently defined pair style zero (src/read_data.cpp:811)
  reading atoms ...
  20000 atoms
  reading velocities ...
  20000 velocities
  read_data CPU = 0.110 seconds

# LJ potential (GPU-accelerated with -sf kk flag)
pair_coeff      1 1 lj/cut 0.430 2.70    # Ga-Ga
pair_coeff      2 2 lj/cut 0.430 3.11    # In-In
pair_coeff      1 2 lj/cut 0.430 2.905   # Ga-In

# Empirical potential (from table files - runs on CPU)
# Table format: r, U(r), F(r)
pair_coeff      1 1 table data/ep_GaGa.table EP_GAGA 12.0
pair_coeff      2 2 table data/ep_InIn.table EP_ININ 12.0
pair_coeff      1 2 table data/ep_GaIn.table EP_GAIN 12.0

# ========== Settings ==========
mass            1 69.723    # Ga
mass            2 114.818   # In

# Optimized neighbor list for GPU
neighbor        2.0 bin
neigh_modify    delay 0 every 1 check yes binsize 4.0

# ========== Initial velocity ==========
# Re-initialize velocities for this temperature
velocity        all create 423.15 12345 dist gaussian

# ========== Thermodynamic output ==========
thermo          1000
thermo_style    custom step temp pe ke etotal press vol density cpu

# ========== Quick minimization for stability ==========
print "========== Energy Minimization =========="
========== Energy Minimization ==========
minimize        1.0e-4 1.0e-6 1000 10000
Generated 0 of 1 mixed pair_coeff terms from geometric mixing rule
Neighbor list info ...
  update: every = 1 steps, delay = 0 steps, check = yes
  max neighbors/atom: 2000, page size: 100000
  master list distance cutoff = 14
  ghost atom cutoff = 14
  binsize = 4, bins = 19 19 19
  2 neighbor lists, perpetual/occasional/extra = 2 0 0
  (1) pair lj/cut, perpetual
      attributes: full, newton off, kokkos_device
      pair build: full/bin/kk/device
      stencil: full/bin/3d
      bin: kk/device
  (2) pair table, perpetual, copy from (1)
      attributes: full, newton off, kokkos_device
      pair build: copy/kk/device
      stencil: none
      bin: none
WARNING: Fix MINIMIZE/kk not compatible with sending data in Kokkos communication (src/KOKKOS/comm_kokkos.cpp:767)
WARNING: Fix with atom-based arrays not compatible with sending data in Kokkos communication, switching to classic exchange/border communication (src/KOKKOS/comm_kokkos.cpp:780)
WARNING: Fix MINIMIZE/kk not compatible with Kokkos sorting on device (src/KOKKOS/atom_kokkos.cpp:212)
WARNING: Fix with atom-based arrays not compatible with Kokkos sorting on device, switching to classic host sorting (src/KOKKOS/atom_kokkos.cpp:218)
Per MPI rank memory allocation (min/avg/max) = 13.71 | 13.71 | 13.71 Mbytes
   Step          Temp          PotEng         KinEng         TotEng         Press          Volume        Density          CPU      
         0   423.15        -41656.468      25225.334     -16431.134      26889.529      402592.25      6.2796667      0            
       126   423.15        -65388.166      25225.334     -40162.832      6464.4881      402592.25      6.2796667      0.19359541   
Loop time of 0.193605 on 1 procs for 126 steps with 20000 atoms

99.0% CPU use with 1 MPI tasks x 1 OpenMP threads

Minimization stats:
  Stopping criterion = energy tolerance
  Energy initial, next-to-last, final = 
     -41656.4679952413  -65381.9993135785  -65388.1659291871
  Force two-norm initial, final = 1548.8099 16.823457
  Force max component initial, final = 43.183702 3.5840035
  Final line search alpha, max atom move = 0.024754623 0.088720656
  Iterations, force evaluations = 126 129

MPI task timing breakdown:
Section |  min time  |  avg time  |  max time  |%varavg| %total
---------------------------------------------------------------
Pair    | 0.15786    | 0.15786    | 0.15786    |   0.0 | 81.54
Neigh   | 0.0073422  | 0.0073422  | 0.0073422  |   0.0 |  3.79
Comm    | 0.0079934  | 0.0079934  | 0.0079934  |   0.0 |  4.13
Output  | 0          | 0          | 0          |   0.0 |  0.00
Modify  | 0          | 0          | 0          |   0.0 |  0.00
Other   |            | 0.02041    |            |       | 10.54

Nlocal:          20000 ave       20000 max       20000 min
Histogram: 1 0 0 0 0 0 0 0 0 0
Nghost:          32421 ave       32421 max       32421 min
Histogram: 1 0 0 0 0 0 0 0 0 0
Neighs:              0 ave           0 max           0 min
Histogram: 1 0 0 0 0 0 0 0 0 0
FullNghs:   1.1392e+07 ave  1.1392e+07 max  1.1392e+07 min
Histogram: 1 0 0 0 0 0 0 0 0 0

Total # of neighbors = 11392044
Ave neighs/atom = 569.6022
Neighbor list builds = 6
Dangerous builds = 0
reset_timestep  0

# ========== RDF computation ==========
# Compute total and partial pair distribution functions
compute         myrdf all rdf 200 1 1 1 2 2 2 cutoff 12.0

# Time-average RDF output
fix             rdfout all ave/time 100 10 1000 c_myrdf[*] file rdf.dat mode vector

# ========== Equilibration (NVT) ==========
print "========== H100 GPU Equilibration =========="
========== H100 GPU Equilibration ==========

# Start with small timestep for stability
timestep        0.5

fix             nvt all nvt temp 423.15 423.15 100.0
run             5000
Generated 0 of 1 mixed pair_coeff terms from geometric mixing rule
Neighbor list info ...
  update: every = 1 steps, delay = 0 steps, check = yes
  max neighbors/atom: 2000, page size: 100000
  master list distance cutoff = 14
  ghost atom cutoff = 14
  binsize = 4, bins = 19 19 19
  3 neighbor lists, perpetual/occasional/extra = 2 1 0
  (1) pair lj/cut, perpetual
      attributes: full, newton off, kokkos_device
      pair build: full/bin/kk/device
      stencil: full/bin/3d
      bin: kk/device
  (2) pair table, perpetual, copy from (1)
      attributes: full, newton off, kokkos_device
      pair build: copy/kk/device
      stencil: none
      bin: none
  (3) compute rdf, occasional
      attributes: half, newton off
      pair build: half/bin/atomonly/newtoff
      stencil: full/bin/3d
      bin: standard
Per MPI rank memory allocation (min/avg/max) = 12.06 | 12.06 | 12.06 Mbytes
   Step          Temp          PotEng         KinEng         TotEng         Press          Volume        Density          CPU      
         0   423.15        -65388.166      25225.334     -40162.832      6464.4881      402592.25      6.2796667      0            
      1000   323.46567     -48268.994      19282.83      -28986.164      20601.419      402592.25      6.2796667      2.8884775    
      2000   431.50698     -42228.695      25723.521     -16505.174      26447          402592.25      6.2796667      5.9689871    
      3000   424.00427     -42370.655      25276.26      -17094.394      26295.758      402592.25      6.2796667      9.0595569    
      4000   423.09501     -42222.24       25222.056     -17000.184      26435.17       402592.25      6.2796667      12.145473    
      5000   422.14824     -41968.184      25165.616     -16802.568      26647.146      402592.25      6.2796667      15.2375      
Loop time of 15.2375 on 1 procs for 5000 steps with 20000 atoms

Performance: 14.176 ns/day, 1.693 hours/ns, 328.138 timesteps/s, 6.563 Matom-step/s
99.9% CPU use with 1 MPI tasks x 1 OpenMP threads

MPI task timing breakdown:
Section |  min time  |  avg time  |  max time  |%varavg| %total
---------------------------------------------------------------
Pair    | 2.5055     | 2.5055     | 2.5055     |   0.0 | 16.44
Neigh   | 0.038249   | 0.038249   | 0.038249   |   0.0 |  0.25
Comm    | 0.050175   | 0.050175   | 0.050175   |   0.0 |  0.33
Output  | 0.0018418  | 0.0018418  | 0.0018418  |   0.0 |  0.01
Modify  | 12.471     | 12.471     | 12.471     |   0.0 | 81.85
Other   |            | 0.1706     |            |       |  1.12

Nlocal:          20000 ave       20000 max       20000 min
Histogram: 1 0 0 0 0 0 0 0 0 0
Nghost:          32481 ave       32481 max       32481 min
Histogram: 1 0 0 0 0 0 0 0 0 0
Neighs:    6.84022e+06 ave 6.84022e+06 max 6.84022e+06 min
Histogram: 1 0 0 0 0 0 0 0 0 0
FullNghs:  1.13989e+07 ave 1.13989e+07 max 1.13989e+07 min
Histogram: 1 0 0 0 0 0 0 0 0 0

Total # of neighbors = 11398902
Ave neighs/atom = 569.9451
Neighbor list builds = 23
Dangerous builds = 0
unfix           nvt

# Increase timestep to normal
timestep        2.0

fix             nvt all nvt temp 423.15 423.15 100.0
run             15000
Generated 0 of 1 mixed pair_coeff terms from geometric mixing rule
Per MPI rank memory allocation (min/avg/max) = 38.38 | 38.38 | 38.38 Mbytes
   Step          Temp          PotEng         KinEng         TotEng         Press          Volume        Density          CPU      
      5000   422.14824     -41968.184      25165.616     -16802.568      26647.146      402592.25      6.2796667      0            
      6000   422.39459     -41683.418      25180.302     -16503.116      26873.164      402592.25      6.2796667      4.1533147    
      7000   427.40855     -41709.182      25479.2       -16229.982      26871.873      402592.25      6.2796667      8.3233591    
      8000   422.88428     -41763.303      25209.494     -16553.809      26804.822      402592.25      6.2796667      12.484685    
      9000   422.39104     -41611.166      25180.09      -16431.076      26932.14       402592.25      6.2796667      16.646096    
     10000   423.51626     -41660.592      25247.168     -16413.424      26895.251      402592.25      6.2796667      20.815784    
     11000   423.9553      -41857.853      25273.341     -16584.513      26723.91       402592.25      6.2796667      24.97829     
     12000   425.44761     -41887.826      25362.302     -16525.524      26719.742      402592.25      6.2796667      29.141434    
     13000   424.25775     -41661.782      25291.371     -16370.411      26891.719      402592.25      6.2796667      33.309635    
     14000   423.27861     -41588.722      25233.001     -16355.721      26953.962      402592.25      6.2796667      37.467246    
     15000   427.22117     -41841.984      25468.029     -16373.954      26765.768      402592.25      6.2796667      41.632224    
     16000   427.60647     -41678.809      25490.998     -16187.81       26907.427      402592.25      6.2796667      45.788847    
     17000   424.19517     -41819.382      25287.64      -16531.741      26770.45       402592.25      6.2796667      49.945853    
     18000   420.90086     -41920.566      25091.256     -16829.31       26658.96       402592.25      6.2796667      54.102814    
     19000   417.38546     -41756.156      24881.692     -16874.464      26787.234      402592.25      6.2796667      58.259174    
     20000   424.95138     -41897.726      25332.72      -16565.006      26705.709      402592.25      6.2796667      62.424694    
Loop time of 62.4247 on 1 procs for 15000 steps with 20000 atoms

Performance: 41.522 ns/day, 0.578 hours/ns, 240.289 timesteps/s, 4.806 Matom-step/s
100.0% CPU use with 1 MPI tasks x 1 OpenMP threads

MPI task timing breakdown:
Section |  min time  |  avg time  |  max time  |%varavg| %total
---------------------------------------------------------------
Pair    | 7.5329     | 7.5329     | 7.5329     |   0.0 | 12.07
Neigh   | 0.46828    | 0.46828    | 0.46828    |   0.0 |  0.75
Comm    | 0.37829    | 0.37829    | 0.37829    |   0.0 |  0.61
Output  | 0.0056264  | 0.0056264  | 0.0056264  |   0.0 |  0.01
Modify  | 53.442     | 53.442     | 53.442     |   0.0 | 85.61
Other   |            | 0.598      |            |       |  0.96

Nlocal:          20000 ave       20000 max       20000 min
Histogram: 1 0 0 0 0 0 0 0 0 0
Nghost:          32404 ave       32404 max       32404 min
Histogram: 1 0 0 0 0 0 0 0 0 0
Neighs:    6.84155e+06 ave 6.84155e+06 max 6.84155e+06 min
Histogram: 1 0 0 0 0 0 0 0 0 0
FullNghs:  1.13959e+07 ave 1.13959e+07 max 1.13959e+07 min
Histogram: 1 0 0 0 0 0 0 0 0 0

Total # of neighbors = 11395860
Ave neighs/atom = 569.793
Neighbor list builds = 291
Dangerous builds = 0
unfix           nvt

# ========== Production (NVT) ==========
print "========== H100 GPU Production run =========="
========== H100 GPU Production run ==========

fix             nvt all nvt temp 423.15 423.15 100.0

# Reset RDF for production run
uncompute       myrdf
compute         myrdf all rdf 200 1 1 1 2 2 2 cutoff 12.0
unfix           rdfout
fix             rdfout all ave/time 100 10 1000 c_myrdf[*] file rdf.dat mode vector

run             50000
Generated 0 of 1 mixed pair_coeff terms from geometric mixing rule
Neighbor list info ...
  update: every = 1 steps, delay = 0 steps, check = yes
  max neighbors/atom: 2000, page size: 100000
  master list distance cutoff = 14
  ghost atom cutoff = 14
  binsize = 4, bins = 19 19 19
  3 neighbor lists, perpetual/occasional/extra = 2 1 0
  (1) pair lj/cut, perpetual
      attributes: full, newton off, kokkos_device
      pair build: full/bin/kk/device
      stencil: full/bin/3d
      bin: kk/device
  (2) pair table, perpetual, copy from (1)
      attributes: full, newton off, kokkos_device
      pair build: copy/kk/device
      stencil: none
      bin: none
  (3) compute rdf, occasional
      attributes: half, newton off
      pair build: half/bin/atomonly/newtoff
      stencil: full/bin/3d
      bin: standard
Per MPI rank memory allocation (min/avg/max) = 12.06 | 12.06 | 12.06 Mbytes
   Step          Temp          PotEng         KinEng         TotEng         Press          Volume        Density          CPU      
     20000   424.95138     -41897.726      25332.72      -16565.006      26705.709      402592.25      6.2796667      0            
     21000   424.30468     -41906.968      25294.168     -16612.8        26698.545      402592.25      6.2796667      4.1676262    
     22000   422.11543     -41784.538      25163.66      -16620.878      26794.043      402592.25      6.2796667      8.3389418    
     23000   421.26749     -41789.899      25113.112     -16676.787      26759.171      402592.25      6.2796667      12.5042      
     24000   423.18689     -41720.168      25227.533     -16492.635      26853.812      402592.25      6.2796667      16.676009    
     25000   422.02664     -41585.071      25158.367     -16426.704      26947.962      402592.25      6.2796667      20.843355    
     26000   423.03426     -41798.711      25218.434     -16580.276      26786.269      402592.25      6.2796667      25.014046    
     27000   424.44304     -41878.658      25302.417     -16576.242      26739.991      402592.25      6.2796667      29.190413    
     28000   423.17996     -41867.9        25227.12      -16640.78       26734.381      402592.25      6.2796667      33.361635    
     29000   425.00061     -41842.985      25335.655     -16507.33       26765.388      402592.25      6.2796667      37.535631    
     30000   423.92842     -41737.726      25271.738     -16465.988      26846.814      402592.25      6.2796667      41.709559    
     31000   421.86357     -41760.584      25148.646     -16611.938      26802.359      402592.25      6.2796667      45.885227    
     32000   421.09867     -41543.671      25103.048     -16440.623      26972.515      402592.25      6.2796667      50.053164    
     33000   422.86454     -41876.185      25208.317     -16667.868      26719.588      402592.25      6.2796667      54.226593    
     34000   424.59969     -42041.924      25311.755     -16730.169      26584.179      402592.25      6.2796667      58.392149    
     35000   422.15744     -41717.53       25166.165     -16551.366      26862.739      402592.25      6.2796667      62.560568    
     36000   422.42225     -41872.006      25181.95      -16690.056      26708.771      402592.25      6.2796667      66.733286    
     37000   422.32403     -41695.451      25176.095     -16519.356      26865.889      402592.25      6.2796667      70.893478    
     38000   420.50448     -41516.907      25067.626     -16449.281      27002.654      402592.25      6.2796667      75.07136     
     39000   421.29877     -41677.93       25114.976     -16562.954      26878.161      402592.25      6.2796667      79.24519     
     40000   424.34273     -41638.264      25296.437     -16341.827      26932.086      402592.25      6.2796667      83.413649    
     41000   424.35261     -41755.5        25297.026     -16458.474      26845.813      402592.25      6.2796667      87.570946    
     42000   427.04457     -41646.419      25457.502     -16188.917      26927.632      402592.25      6.2796667      91.747056    
     43000   424.40551     -41778.276      25300.179     -16478.097      26800.618      402592.25      6.2796667      95.920108    
     44000   421.89059     -41977.893      25150.257     -16827.637      26610.326      402592.25      6.2796667      100.08651    
     45000   421.99592     -42028.867      25156.536     -16872.331      26574.326      402592.25      6.2796667      104.2504     
     46000   424.84979     -41746.596      25326.664     -16419.931      26826.597      402592.25      6.2796667      108.41112    
     47000   420.9625      -41672.206      25094.93      -16577.276      26870.022      402592.25      6.2796667      112.57095    
     48000   421.18722     -41871.629      25108.327     -16763.302      26705.003      402592.25      6.2796667      116.74589    
     49000   423.10229     -41592.778      25222.49      -16370.288      26952.324      402592.25      6.2796667      120.91294    
     50000   422.09311     -41542.871      25162.33      -16380.542      26993.694      402592.25      6.2796667      125.07857    
     51000   423.65359     -41869.801      25255.355     -16614.446      26723.05       402592.25      6.2796667      129.2435     
     52000   422.32325     -41725.43       25176.049     -16549.381      26862.087      402592.25      6.2796667      133.41965    
     53000   420.68607     -41762.506      25078.451     -16684.054      26765.68       402592.25      6.2796667      137.57855    
     54000   421.10607     -41815.172      25103.489     -16711.683      26772.933      402592.25      6.2796667      141.75156    
     55000   423.96867     -41665.231      25274.138     -16391.093      26900.169      402592.25      6.2796667      145.91234    
     56000   423.26312     -41817.59       25232.078     -16585.513      26768.817      402592.25      6.2796667      150.08014    
     57000   421.47516     -42027.001      25125.491     -16901.51       26610.903      402592.25      6.2796667      154.25689    
     58000   417.79037     -41745.694      24905.829     -16839.865      26795.206      402592.25      6.2796667      158.41376    
     59000   422.30714     -41602.805      25175.089     -16427.716      26934.105      402592.25      6.2796667      162.58094    
     60000   419.91739     -41460.976      25032.628     -16428.348      27046.298      402592.25      6.2796667      166.7566     
     61000   424.55475     -41592.717      25309.076     -16283.642      26966.556      402592.25      6.2796667      170.92656    
     62000   424.7613      -41946.011      25321.389     -16624.622      26682.517      402592.25      6.2796667      175.09376    
     63000   420.51498     -41798.443      25068.252     -16730.191      26770.235      402592.25      6.2796667      179.25137    
     64000   425.74445     -41709.109      25379.998     -16329.111      26866.656      402592.25      6.2796667      183.42251    
     65000   421.51166     -41852.564      25127.668     -16724.897      26723.769      402592.25      6.2796667      187.59061    
     66000   420.75619     -41734.279      25082.631     -16651.648      26808.773      402592.25      6.2796667      191.76664    
     67000   421.20867     -41625.515      25109.605     -16515.91       26906.495      402592.25      6.2796667      195.93818    
     68000   428.36449     -41796.636      25536.187     -16260.449      26813.635      402592.25      6.2796667      200.10174    
     69000   425.54832     -41827.462      25368.306     -16459.156      26786.139      402592.25      6.2796667      204.26872    
     70000   425.72022     -41740.138      25378.553     -16361.585      26851.564      402592.25      6.2796667      208.43954    
Loop time of 208.44 on 1 procs for 50000 steps with 20000 atoms

Performance: 41.451 ns/day, 0.579 hours/ns, 239.878 timesteps/s, 4.798 Matom-step/s
100.0% CPU use with 1 MPI tasks x 1 OpenMP threads

MPI task timing breakdown:
Section |  min time  |  avg time  |  max time  |%varavg| %total
---------------------------------------------------------------
Pair    | 25.213     | 25.213     | 25.213     |   0.0 | 12.10
Neigh   | 1.5688     | 1.5688     | 1.5688     |   0.0 |  0.75
Comm    | 1.2676     | 1.2676     | 1.2676     |   0.0 |  0.61
Output  | 0.019068   | 0.019068   | 0.019068   |   0.0 |  0.01
Modify  | 178.38     | 178.38     | 178.38     |   0.0 | 85.58
Other   |            | 1.994      |            |       |  0.96

Nlocal:          20000 ave       20000 max       20000 min
Histogram: 1 0 0 0 0 0 0 0 0 0
Nghost:          32411 ave       32411 max       32411 min
Histogram: 1 0 0 0 0 0 0 0 0 0
Neighs:    6.84092e+06 ave 6.84092e+06 max 6.84092e+06 min
Histogram: 1 0 0 0 0 0 0 0 0 0
FullNghs:  1.13998e+07 ave 1.13998e+07 max 1.13998e+07 min
Histogram: 1 0 0 0 0 0 0 0 0 0

Total # of neighbors = 11399790
Ave neighs/atom = 569.9895
Neighbor list builds = 975
Dangerous builds = 0
unfix           nvt

# ========== Finalize ==========
print "========== H100 GPU Simulation completed =========="
========== H100 GPU Simulation completed ==========

# Write restart file for next iteration (use fixed name to avoid shell command issues)
write_restart   outputs/restart.0.data
System init for write_restart ...
Generated 0 of 1 mixed pair_coeff terms from geometric mixing rule

# Final statistics
variable        density_final equal density
variable        temp_final equal temp
variable        press_final equal press

print "========================================="
=========================================
print "FINAL RESULTS:"
FINAL RESULTS:
print "  Density:     ${density_final} g/cm^3"
  Density:     6.27966666056994 g/cm^3
print "  Temperature: ${temp_final} K"
  Temperature: 425.720217903543 K
print "  Pressure:    ${press_final} bar"
  Pressure:    26851.564103829 bar
print "========================================="
=========================================

print "RDF written to rdf.dat"
RDF written to rdf.dat
print "Restart file written to outputs/restart.0.data"
Restart file written to outputs/restart.0.data
Total wall time: 0:04:47
