LAMMPS (22 Jul 2025 - Update 2)
KOKKOS mode with Kokkos version 4.6.2 is enabled
  will use up to 1 GPU(s) per node
  using 1 OpenMP thread(s) per MPI task
package kokkos
# H100 GPU-Optimized LAMMPS input for EPSR simulation of EGaIn eutectic alloy
# Composition: Ga0.858In0.142
# Temperature: 150Â°C (423.15 K)
# Potential: LJ + Empirical Potential (table)
# GPU: Using KOKKOS for H100 (Hopper architecture)

# ========== KOKKOS Initialization (CRITICAL: Must be first) ==========
# CRITICAL FIX: newton off prevents KOKKOS errors on H100
# Note: pair_style table does not have /kk support, but will run on CPU while LJ runs on GPU
package         kokkos neigh full newton off

# ========== Initialization ==========
units           real
atom_style      atomic
boundary        p p p

# ========== Force field ==========
# Use hybrid/overlay to combine LJ (GPU-accelerated) and table (CPU)
# The -sf kk flag will automatically use lj/cut/kk while table runs on CPU
# NOTE: pair_style must be defined BEFORE read_data if data file contains Pair Coeffs section
pair_style      hybrid/overlay lj/cut 12.0 table linear 200

# ========== Read structure ==========
# Use LJ-equilibrated structure as initial configuration (more stable)
shell           mkdir -p outputs
# nocoeff skips Pair Coeffs section which is incompatible with hybrid/overlay
read_data       outputs/final_structure_lj_H100.data nocoeff
Reading data file ...
  orthogonal box = (0 0 0) to (73.839453 73.839453 73.839453)
  1 by 1 by 1 MPI processor grid
WARNING: Pair style lj/cut/kk in data file differs from currently defined pair style zero (src/read_data.cpp:811)
  reading atoms ...
  20000 atoms
  reading velocities ...
  20000 velocities
  read_data CPU = 0.097 seconds

# LJ potential (GPU-accelerated with -sf kk flag)
pair_coeff      1 1 lj/cut 0.430 2.70    # Ga-Ga
pair_coeff      2 2 lj/cut 0.430 3.11    # In-In
pair_coeff      1 2 lj/cut 0.430 2.905   # Ga-In

# Empirical potential (from table files - runs on CPU)
# Table format: r, U(r), F(r)
pair_coeff      1 1 table data/ep_GaGa.table EP_GAGA 12.0
pair_coeff      2 2 table data/ep_InIn.table EP_ININ 12.0
pair_coeff      1 2 table data/ep_GaIn.table EP_GAIN 12.0

# ========== Settings ==========
mass            1 69.723    # Ga
mass            2 114.818   # In

# Optimized neighbor list for GPU
neighbor        2.0 bin
neigh_modify    delay 0 every 1 check yes binsize 4.0

# ========== Initial velocity ==========
# Re-initialize velocities for this temperature
velocity        all create 423.15 12345 dist gaussian

# ========== Thermodynamic output ==========
thermo          1000
thermo_style    custom step temp pe ke etotal press vol density cpu

# ========== Quick minimization for stability ==========
print "========== Energy Minimization =========="
========== Energy Minimization ==========
minimize        1.0e-4 1.0e-6 1000 10000
Generated 0 of 1 mixed pair_coeff terms from geometric mixing rule
Neighbor list info ...
  update: every = 1 steps, delay = 0 steps, check = yes
  max neighbors/atom: 2000, page size: 100000
  master list distance cutoff = 14
  ghost atom cutoff = 14
  binsize = 4, bins = 19 19 19
  2 neighbor lists, perpetual/occasional/extra = 2 0 0
  (1) pair lj/cut, perpetual
      attributes: full, newton off, kokkos_device
      pair build: full/bin/kk/device
      stencil: full/bin/3d
      bin: kk/device
  (2) pair table, perpetual, copy from (1)
      attributes: full, newton off, kokkos_device
      pair build: copy/kk/device
      stencil: none
      bin: none
WARNING: Fix MINIMIZE/kk not compatible with sending data in Kokkos communication (src/KOKKOS/comm_kokkos.cpp:767)
WARNING: Fix with atom-based arrays not compatible with sending data in Kokkos communication, switching to classic exchange/border communication (src/KOKKOS/comm_kokkos.cpp:780)
WARNING: Fix MINIMIZE/kk not compatible with Kokkos sorting on device (src/KOKKOS/atom_kokkos.cpp:212)
WARNING: Fix with atom-based arrays not compatible with Kokkos sorting on device, switching to classic host sorting (src/KOKKOS/atom_kokkos.cpp:218)
Per MPI rank memory allocation (min/avg/max) = 13.71 | 13.71 | 13.71 Mbytes
   Step          Temp          PotEng         KinEng         TotEng         Press          Volume        Density          CPU      
         0   423.15        -501976.32      25225.334     -476750.98      22346.837      402592.25      6.2796667      0            
        35   423.15        -522676.63      25225.334     -497451.3       4719.287       402592.25      6.2796667      0.053740821  
Loop time of 0.0537465 on 1 procs for 35 steps with 20000 atoms

99.0% CPU use with 1 MPI tasks x 1 OpenMP threads

Minimization stats:
  Stopping criterion = energy tolerance
  Energy initial, next-to-last, final = 
     -501976.316942274  -522626.325072761   -522676.63198189
  Force two-norm initial, final = 1585.1935 63.668946
  Force max component initial, final = 44.435593 3.0466835
  Final line search alpha, max atom move = 0.0058395177 0.017791163
  Iterations, force evaluations = 35 35

MPI task timing breakdown:
Section |  min time  |  avg time  |  max time  |%varavg| %total
---------------------------------------------------------------
Pair    | 0.042601   | 0.042601   | 0.042601   |   0.0 | 79.26
Neigh   | 0.001223   | 0.001223   | 0.001223   |   0.0 |  2.28
Comm    | 0.0021081  | 0.0021081  | 0.0021081  |   0.0 |  3.92
Output  | 0          | 0          | 0          |   0.0 |  0.00
Modify  | 0          | 0          | 0          |   0.0 |  0.00
Other   |            | 0.007814   |            |       | 14.54

Nlocal:          20000 ave       20000 max       20000 min
Histogram: 1 0 0 0 0 0 0 0 0 0
Nghost:          32430 ave       32430 max       32430 min
Histogram: 1 0 0 0 0 0 0 0 0 0
Neighs:              0 ave           0 max           0 min
Histogram: 1 0 0 0 0 0 0 0 0 0
FullNghs:  1.14105e+07 ave 1.14105e+07 max 1.14105e+07 min
Histogram: 1 0 0 0 0 0 0 0 0 0

Total # of neighbors = 11410456
Ave neighs/atom = 570.5228
Neighbor list builds = 1
Dangerous builds = 0
reset_timestep  0

# ========== RDF computation ==========
# Compute total and partial pair distribution functions
compute         myrdf all rdf 200 1 1 1 2 2 2 cutoff 12.0

# Time-average RDF output
fix             rdfout all ave/time 100 10 1000 c_myrdf[*] file rdf.dat mode vector

# ========== Equilibration (NVT) ==========
print "========== H100 GPU Equilibration =========="
========== H100 GPU Equilibration ==========

# Start with small timestep for stability
timestep        0.5

fix             nvt all nvt temp 423.15 423.15 100.0
run             5000
Generated 0 of 1 mixed pair_coeff terms from geometric mixing rule
Neighbor list info ...
  update: every = 1 steps, delay = 0 steps, check = yes
  max neighbors/atom: 2000, page size: 100000
  master list distance cutoff = 14
  ghost atom cutoff = 14
  binsize = 4, bins = 19 19 19
  3 neighbor lists, perpetual/occasional/extra = 2 1 0
  (1) pair lj/cut, perpetual
      attributes: full, newton off, kokkos_device
      pair build: full/bin/kk/device
      stencil: full/bin/3d
      bin: kk/device
  (2) pair table, perpetual, copy from (1)
      attributes: full, newton off, kokkos_device
      pair build: copy/kk/device
      stencil: none
      bin: none
  (3) compute rdf, occasional
      attributes: half, newton off
      pair build: half/bin/atomonly/newtoff
      stencil: full/bin/3d
      bin: standard
Per MPI rank memory allocation (min/avg/max) = 12.06 | 12.06 | 12.06 Mbytes
   Step          Temp          PotEng         KinEng         TotEng         Press          Volume        Density          CPU      
         0   423.15        -522676.63      25225.334     -497451.3       4719.287       402592.25      6.2796667      0            
      1000   353.79505     -507450.62      21090.862     -486359.76      23005.71       402592.25      6.2796667      3.0973432    
      2000   430.49942     -503715.76      25663.457     -478052.3       27182.92       402592.25      6.2796667      6.182871     
      3000   430.6931      -504075.46      25675.003     -478400.45      26782.771      402592.25      6.2796667      9.2801437    
      4000   424.61886     -503543.41      25312.898     -478230.51      27113.695      402592.25      6.2796667      12.169156    
      5000   428.50867     -504004.12      25544.782     -478459.34      26838.015      402592.25      6.2796667      15.267859    
Loop time of 15.2679 on 1 procs for 5000 steps with 20000 atoms

Performance: 14.147 ns/day, 1.696 hours/ns, 327.485 timesteps/s, 6.550 Matom-step/s
99.9% CPU use with 1 MPI tasks x 1 OpenMP threads

MPI task timing breakdown:
Section |  min time  |  avg time  |  max time  |%varavg| %total
---------------------------------------------------------------
Pair    | 2.507      | 2.507      | 2.507      |   0.0 | 16.42
Neigh   | 0.037141   | 0.037141   | 0.037141   |   0.0 |  0.24
Comm    | 0.050709   | 0.050709   | 0.050709   |   0.0 |  0.33
Output  | 0.0017222  | 0.0017222  | 0.0017222  |   0.0 |  0.01
Modify  | 12.5       | 12.5       | 12.5       |   0.0 | 81.87
Other   |            | 0.171      |            |       |  1.12

Nlocal:          20000 ave       20000 max       20000 min
Histogram: 1 0 0 0 0 0 0 0 0 0
Nghost:          32549 ave       32549 max       32549 min
Histogram: 1 0 0 0 0 0 0 0 0 0
Neighs:    6.85071e+06 ave 6.85071e+06 max 6.85071e+06 min
Histogram: 1 0 0 0 0 0 0 0 0 0
FullNghs:  1.14104e+07 ave 1.14104e+07 max 1.14104e+07 min
Histogram: 1 0 0 0 0 0 0 0 0 0

Total # of neighbors = 11410394
Ave neighs/atom = 570.5197
Neighbor list builds = 23
Dangerous builds = 0
unfix           nvt

# Increase timestep to normal
timestep        2.0

fix             nvt all nvt temp 423.15 423.15 100.0
run             15000
Generated 0 of 1 mixed pair_coeff terms from geometric mixing rule
Per MPI rank memory allocation (min/avg/max) = 38.39 | 38.39 | 38.39 Mbytes
   Step          Temp          PotEng         KinEng         TotEng         Press          Volume        Density          CPU      
      5000   428.50867     -504004.12      25544.782     -478459.34      26838.015      402592.25      6.2796667      0            
      6000   423.98675     -503868.63      25275.215     -478593.41      26904.695      402592.25      6.2796667      4.1938153    
      7000   421.62302     -503694.88      25134.306     -478560.57      26904.768      402592.25      6.2796667      8.3809308    
      8000   420.96657     -503587.19      25095.173     -478492.01      27072.22       402592.25      6.2796667      12.561989    
      9000   419.53764     -503934.95      25009.99      -478924.96      26923.409      402592.25      6.2796667      16.744988    
     10000   419.44424     -503942.86      25004.422     -478938.44      26943.282      402592.25      6.2796667      20.928602    
     11000   421.5259      -503664.92      25128.516     -478536.4       27099.645      402592.25      6.2796667      25.098483    
     12000   421.74732     -503821.99      25141.716     -478680.27      26883.871      402592.25      6.2796667      29.27785     
     13000   425.0533      -503784.74      25338.796     -478445.94      27077.829      402592.25      6.2796667      33.463391    
     14000   420.42839     -503723.89      25063.09      -478660.8       27097.785      402592.25      6.2796667      37.630974    
     15000   421.79991     -503822.1       25144.851     -478677.24      26944.349      402592.25      6.2796667      41.817132    
     16000   423.90564     -503803.27      25270.38      -478532.89      27044.276      402592.25      6.2796667      46.00316     
     17000   425.33198     -503811.33      25355.409     -478455.92      26873          402592.25      6.2796667      50.179272    
     18000   423.09269     -503805.53      25221.918     -478583.61      27071.113      402592.25      6.2796667      54.353329    
     19000   425.80869     -503713.2       25383.827     -478329.38      27120.193      402592.25      6.2796667      58.530042    
     20000   425.39705     -503794.92      25359.288     -478435.63      27003.086      402592.25      6.2796667      62.695051    
Loop time of 62.6951 on 1 procs for 15000 steps with 20000 atoms

Performance: 41.343 ns/day, 0.581 hours/ns, 239.253 timesteps/s, 4.785 Matom-step/s
100.0% CPU use with 1 MPI tasks x 1 OpenMP threads

MPI task timing breakdown:
Section |  min time  |  avg time  |  max time  |%varavg| %total
---------------------------------------------------------------
Pair    | 7.5781     | 7.5781     | 7.5781     |   0.0 | 12.09
Neigh   | 0.45953    | 0.45953    | 0.45953    |   0.0 |  0.73
Comm    | 0.37171    | 0.37171    | 0.37171    |   0.0 |  0.59
Output  | 0.0051847  | 0.0051847  | 0.0051847  |   0.0 |  0.01
Modify  | 53.678     | 53.678     | 53.678     |   0.0 | 85.62
Other   |            | 0.6021     |            |       |  0.96

Nlocal:          20000 ave       20000 max       20000 min
Histogram: 1 0 0 0 0 0 0 0 0 0
Nghost:          32554 ave       32554 max       32554 min
Histogram: 1 0 0 0 0 0 0 0 0 0
Neighs:    6.84908e+06 ave 6.84908e+06 max 6.84908e+06 min
Histogram: 1 0 0 0 0 0 0 0 0 0
FullNghs:  1.14107e+07 ave 1.14107e+07 max 1.14107e+07 min
Histogram: 1 0 0 0 0 0 0 0 0 0

Total # of neighbors = 11410688
Ave neighs/atom = 570.5344
Neighbor list builds = 290
Dangerous builds = 0
unfix           nvt

# ========== Production (NVT) ==========
print "========== H100 GPU Production run =========="
========== H100 GPU Production run ==========

fix             nvt all nvt temp 423.15 423.15 100.0

# Reset RDF for production run
uncompute       myrdf
compute         myrdf all rdf 200 1 1 1 2 2 2 cutoff 12.0
unfix           rdfout
fix             rdfout all ave/time 100 10 1000 c_myrdf[*] file rdf.dat mode vector

run             50000
Generated 0 of 1 mixed pair_coeff terms from geometric mixing rule
Neighbor list info ...
  update: every = 1 steps, delay = 0 steps, check = yes
  max neighbors/atom: 2000, page size: 100000
  master list distance cutoff = 14
  ghost atom cutoff = 14
  binsize = 4, bins = 19 19 19
  3 neighbor lists, perpetual/occasional/extra = 2 1 0
  (1) pair lj/cut, perpetual
      attributes: full, newton off, kokkos_device
      pair build: full/bin/kk/device
      stencil: full/bin/3d
      bin: kk/device
  (2) pair table, perpetual, copy from (1)
      attributes: full, newton off, kokkos_device
      pair build: copy/kk/device
      stencil: none
      bin: none
  (3) compute rdf, occasional
      attributes: half, newton off
      pair build: half/bin/atomonly/newtoff
      stencil: full/bin/3d
      bin: standard
Per MPI rank memory allocation (min/avg/max) = 12.06 | 12.06 | 12.06 Mbytes
   Step          Temp          PotEng         KinEng         TotEng         Press          Volume        Density          CPU      
     20000   425.39705     -503794.92      25359.288     -478435.63      27003.086      402592.25      6.2796667      0            
     21000   422.00657     -503872.96      25157.17      -478715.79      26925.538      402592.25      6.2796667      4.1656859    
     22000   426.75228     -504068.32      25440.078     -478628.24      26646.21       402592.25      6.2796667      8.3355658    
     23000   421.37997     -503791.83      25119.817     -478672.01      26985.911      402592.25      6.2796667      12.503729    
     24000   424.32079     -503639.06      25295.129     -478343.93      27226.243      402592.25      6.2796667      16.672507    
     25000   425.63534     -504052.93      25373.494     -478679.44      26627.836      402592.25      6.2796667      20.830585    
     26000   425.2443      -503944.03      25350.182     -478593.85      26979.194      402592.25      6.2796667      24.992394    
     27000   420.88677     -504077.08      25090.416     -478986.66      26623.497      402592.25      6.2796667      29.165184    
     28000   422.34383     -503757.28      25177.276     -478580         26869.431      402592.25      6.2796667      33.328171    
     29000   425.99178     -503889.28      25394.742     -478494.54      27047.308      402592.25      6.2796667      37.492053    
     30000   418.3527      -503840.89      24939.351     -478901.53      26895.885      402592.25      6.2796667      41.653791    
     31000   424.29861     -504075.91      25293.807     -478782.1       26730.041      402592.25      6.2796667      45.824593    
     32000   419.14675     -503860.75      24986.687     -478874.07      26662.771      402592.25      6.2796667      49.980156    
     33000   425.4692      -503803.06      25363.589     -478439.48      27097.337      402592.25      6.2796667      54.145427    
     34000   421.75665     -503913.19      25142.272     -478770.91      26808.391      402592.25      6.2796667      58.311643    
     35000   422.81068     -504051.56      25205.106     -478846.46      26702.792      402592.25      6.2796667      62.471153    
     36000   425.03836     -503726.2       25337.906     -478388.3       27116.854      402592.25      6.2796667      66.632212    
     37000   421.54726     -503676.98      25129.79      -478547.19      27008.695      402592.25      6.2796667      70.792824    
     38000   424.63133     -504089         25313.641     -478775.36      26851.767      402592.25      6.2796667      74.959331    
     39000   430.80658     -504066.72      25681.767     -478384.95      26869.765      402592.25      6.2796667      79.129565    
     40000   423.17869     -503891.71      25227.045     -478664.66      26943.978      402592.25      6.2796667      83.287564    
     41000   422.1026      -503654.8       25162.895     -478491.9       27166.037      402592.25      6.2796667      87.454334    
     42000   423.33892     -503714.46      25236.596     -478477.87      27145.528      402592.25      6.2796667      91.625104    
     43000   421.97329     -503933.32      25155.187     -478778.14      26892.007      402592.25      6.2796667      95.788019    
     44000   423.34256     -503834.24      25236.813     -478597.43      27065.036      402592.25      6.2796667      99.951196    
     45000   422.44078     -503788.21      25183.055     -478605.16      26923.955      402592.25      6.2796667      104.11195    
     46000   424.2708      -503945.2       25292.148     -478653.06      26857.724      402592.25      6.2796667      108.27051    
     47000   422.85592     -503744.65      25207.803     -478536.85      27034.902      402592.25      6.2796667      112.43337    
     48000   425.95927     -503618.33      25392.804     -478225.52      27132.449      402592.25      6.2796667      116.58977    
     49000   422.57333     -503951.1       25190.957     -478760.14      26819.401      402592.25      6.2796667      120.74844    
     50000   422.62921     -503794.41      25194.288     -478600.12      26837.854      402592.25      6.2796667      124.90984    
     51000   426.76531     -503717.85      25440.855     -478276.99      27102.464      402592.25      6.2796667      129.07513    
     52000   420.87338     -503778         25089.617     -478688.38      27066.572      402592.25      6.2796667      133.23134    
     53000   423.22478     -503709.91      25229.792     -478480.11      26755.576      402592.25      6.2796667      137.40174    
     54000   427.32462     -503773.01      25474.197     -478298.81      27115.98       402592.25      6.2796667      141.56357    
     55000   422.52216     -503711.03      25187.906     -478523.13      27121.631      402592.25      6.2796667      145.72509    
     56000   425.83978     -503726.6       25385.68      -478340.92      26971.168      402592.25      6.2796667      149.89897    
     57000   425.31062     -503979.51      25354.136     -478625.38      26892.107      402592.25      6.2796667      154.05822    
     58000   424.45826     -503656.44      25303.323     -478353.11      27070.801      402592.25      6.2796667      158.21533    
     59000   423.00125     -503803.9       25216.467     -478587.43      27070.645      402592.25      6.2796667      162.38205    
     60000   422.19644     -503914.83      25168.49      -478746.34      26884.111      402592.25      6.2796667      166.54152    
     61000   423.69226     -504068.22      25257.66      -478810.56      26670.262      402592.25      6.2796667      170.69589    
     62000   425.35352     -503585.96      25356.693     -478229.26      27371.243      402592.25      6.2796667      174.85106    
     63000   421.29835     -504059.3       25114.951     -478944.35      26574.436      402592.25      6.2796667      179.0102     
     64000   421.65108     -503893.09      25135.979     -478757.11      26834.451      402592.25      6.2796667      183.16341    
     65000   424.82875     -503604.94      25325.41      -478279.54      27170.841      402592.25      6.2796667      187.32057    
     66000   419.29565     -504121.34      24995.564     -479125.78      26747.562      402592.25      6.2796667      191.48768    
     67000   421.14204     -503813.47      25105.633     -478707.83      26909.803      402592.25      6.2796667      195.63802    
     68000   425.17918     -503835.85      25346.3       -478489.55      26867.538      402592.25      6.2796667      199.80249    
     69000   423.60678     -503731.99      25252.564     -478479.43      26822.968      402592.25      6.2796667      203.9638     
     70000   426.69777     -503840.51      25436.828     -478403.68      26886.771      402592.25      6.2796667      208.11386    
Loop time of 208.114 on 1 procs for 50000 steps with 20000 atoms

Performance: 41.516 ns/day, 0.578 hours/ns, 240.253 timesteps/s, 4.805 Matom-step/s
100.0% CPU use with 1 MPI tasks x 1 OpenMP threads

MPI task timing breakdown:
Section |  min time  |  avg time  |  max time  |%varavg| %total
---------------------------------------------------------------
Pair    | 25.173     | 25.173     | 25.173     |   0.0 | 12.10
Neigh   | 1.5254     | 1.5254     | 1.5254     |   0.0 |  0.73
Comm    | 1.2392     | 1.2392     | 1.2392     |   0.0 |  0.60
Output  | 0.01773    | 0.01773    | 0.01773    |   0.0 |  0.01
Modify  | 178.15     | 178.15     | 178.15     |   0.0 | 85.60
Other   |            | 2.006      |            |       |  0.96

Nlocal:          20000 ave       20000 max       20000 min
Histogram: 1 0 0 0 0 0 0 0 0 0
Nghost:          32418 ave       32418 max       32418 min
Histogram: 1 0 0 0 0 0 0 0 0 0
Neighs:    6.84992e+06 ave 6.84992e+06 max 6.84992e+06 min
Histogram: 1 0 0 0 0 0 0 0 0 0
FullNghs:   1.1411e+07 ave  1.1411e+07 max  1.1411e+07 min
Histogram: 1 0 0 0 0 0 0 0 0 0

Total # of neighbors = 11410960
Ave neighs/atom = 570.548
Neighbor list builds = 966
Dangerous builds = 0
unfix           nvt

# ========== Finalize ==========
print "========== H100 GPU Simulation completed =========="
========== H100 GPU Simulation completed ==========

# Write restart file for next iteration (use fixed name to avoid shell command issues)
write_restart   outputs/restart.0.data
System init for write_restart ...
Generated 0 of 1 mixed pair_coeff terms from geometric mixing rule

# Final statistics
variable        density_final equal density
variable        temp_final equal temp
variable        press_final equal press

print "========================================="
=========================================
print "FINAL RESULTS:"
FINAL RESULTS:
print "  Density:     ${density_final} g/cm^3"
  Density:     6.27966666056994 g/cm^3
print "  Temperature: ${temp_final} K"
  Temperature: 426.697771453549 K
print "  Pressure:    ${press_final} bar"
  Pressure:    26886.7714631493 bar
print "========================================="
=========================================

print "RDF written to rdf.dat"
RDF written to rdf.dat
print "Restart file written to outputs/restart.0.data"
Restart file written to outputs/restart.0.data
Total wall time: 0:04:46
