LAMMPS (22 Jul 2025 - Update 2)
KOKKOS mode with Kokkos version 4.6.2 is enabled
  will use up to 1 GPU(s) per node
  using 1 OpenMP thread(s) per MPI task
package kokkos
# H100 GPU-Optimized LAMMPS input for EPSR simulation of EGaIn eutectic alloy
# Composition: Ga0.858In0.142
# Temperature: 150Â°C (423.15 K)
# Potential: LJ + Empirical Potential (table)
# GPU: Using KOKKOS for H100 (Hopper architecture)

# ========== KOKKOS Initialization (CRITICAL: Must be first) ==========
# CRITICAL FIX: newton off prevents KOKKOS errors on H100
# Note: pair_style table does not have /kk support, but will run on CPU while LJ runs on GPU
package         kokkos neigh full newton off

# ========== Initialization ==========
units           real
atom_style      atomic
boundary        p p p

# ========== Force field ==========
# Use hybrid/overlay to combine LJ (GPU-accelerated) and table (CPU)
# The -sf kk flag will automatically use lj/cut/kk while table runs on CPU
# NOTE: pair_style must be defined BEFORE read_data if data file contains Pair Coeffs section
pair_style      hybrid/overlay lj/cut 12.0 table linear 200

# ========== Read structure ==========
# Use LJ-equilibrated structure as initial configuration (more stable)
shell           mkdir -p outputs
# nocoeff skips Pair Coeffs section which is incompatible with hybrid/overlay
read_data       outputs/final_structure_lj_H100.data nocoeff
Reading data file ...
  orthogonal box = (0 0 0) to (73.839453 73.839453 73.839453)
  1 by 1 by 1 MPI processor grid
WARNING: Pair style lj/cut/kk in data file differs from currently defined pair style zero (src/read_data.cpp:811)
  reading atoms ...
  20000 atoms
  reading velocities ...
  20000 velocities
  read_data CPU = 0.097 seconds

# LJ potential (GPU-accelerated with -sf kk flag)
pair_coeff      1 1 lj/cut 0.430 2.70    # Ga-Ga
pair_coeff      2 2 lj/cut 0.430 3.11    # In-In
pair_coeff      1 2 lj/cut 0.430 2.905   # Ga-In

# Empirical potential (from table files - runs on CPU)
# Table format: r, U(r), F(r)
pair_coeff      1 1 table data/ep_GaGa.table EP_GAGA 12.0
pair_coeff      2 2 table data/ep_InIn.table EP_ININ 12.0
pair_coeff      1 2 table data/ep_GaIn.table EP_GAIN 12.0

# ========== Settings ==========
mass            1 69.723    # Ga
mass            2 114.818   # In

# Optimized neighbor list for GPU
neighbor        2.0 bin
neigh_modify    delay 0 every 1 check yes binsize 4.0

# ========== Initial velocity ==========
# Re-initialize velocities for this temperature
velocity        all create 423.15 12345 dist gaussian

# ========== Thermodynamic output ==========
thermo          1000
thermo_style    custom step temp pe ke etotal press vol density cpu

# ========== Quick minimization for stability ==========
print "========== Energy Minimization =========="
========== Energy Minimization ==========
minimize        1.0e-4 1.0e-6 1000 10000
Generated 0 of 1 mixed pair_coeff terms from geometric mixing rule
Neighbor list info ...
  update: every = 1 steps, delay = 0 steps, check = yes
  max neighbors/atom: 2000, page size: 100000
  master list distance cutoff = 14
  ghost atom cutoff = 14
  binsize = 4, bins = 19 19 19
  2 neighbor lists, perpetual/occasional/extra = 2 0 0
  (1) pair lj/cut, perpetual
      attributes: full, newton off, kokkos_device
      pair build: full/bin/kk/device
      stencil: full/bin/3d
      bin: kk/device
  (2) pair table, perpetual, copy from (1)
      attributes: full, newton off, kokkos_device
      pair build: copy/kk/device
      stencil: none
      bin: none
WARNING: Fix MINIMIZE/kk not compatible with sending data in Kokkos communication (src/KOKKOS/comm_kokkos.cpp:767)
WARNING: Fix with atom-based arrays not compatible with sending data in Kokkos communication, switching to classic exchange/border communication (src/KOKKOS/comm_kokkos.cpp:780)
WARNING: Fix MINIMIZE/kk not compatible with Kokkos sorting on device (src/KOKKOS/atom_kokkos.cpp:212)
WARNING: Fix with atom-based arrays not compatible with Kokkos sorting on device, switching to classic host sorting (src/KOKKOS/atom_kokkos.cpp:218)
Per MPI rank memory allocation (min/avg/max) = 13.71 | 13.71 | 13.71 Mbytes
   Step          Temp          PotEng         KinEng         TotEng         Press          Volume        Density          CPU      
         0   423.15        -41656.468      25225.334     -16431.134      26889.529      402592.25      6.2796667      0            
       126   423.15        -65387.513      25225.334     -40162.179      6465.046       402592.25      6.2796667      0.19275594   
Loop time of 0.192763 on 1 procs for 126 steps with 20000 atoms

100.0% CPU use with 1 MPI tasks x 1 OpenMP threads

Minimization stats:
  Stopping criterion = energy tolerance
  Energy initial, next-to-last, final = 
     -41656.4679952413  -65381.3409971727  -65387.5132739306
  Force two-norm initial, final = 1548.8099 16.918876
  Force max component initial, final = 43.183702 3.8000731
  Final line search alpha, max atom move = 0.024791735 0.094210405
  Iterations, force evaluations = 126 128

MPI task timing breakdown:
Section |  min time  |  avg time  |  max time  |%varavg| %total
---------------------------------------------------------------
Pair    | 0.15497    | 0.15497    | 0.15497    |   0.0 | 80.39
Neigh   | 0.0089401  | 0.0089401  | 0.0089401  |   0.0 |  4.64
Comm    | 0.0077103  | 0.0077103  | 0.0077103  |   0.0 |  4.00
Output  | 0          | 0          | 0          |   0.0 |  0.00
Modify  | 0          | 0          | 0          |   0.0 |  0.00
Other   |            | 0.02115    |            |       | 10.97

Nlocal:          20000 ave       20000 max       20000 min
Histogram: 1 0 0 0 0 0 0 0 0 0
Nghost:          32421 ave       32421 max       32421 min
Histogram: 1 0 0 0 0 0 0 0 0 0
Neighs:              0 ave           0 max           0 min
Histogram: 1 0 0 0 0 0 0 0 0 0
FullNghs:   1.1392e+07 ave  1.1392e+07 max  1.1392e+07 min
Histogram: 1 0 0 0 0 0 0 0 0 0

Total # of neighbors = 11391980
Ave neighs/atom = 569.599
Neighbor list builds = 6
Dangerous builds = 0
reset_timestep  0

# ========== RDF computation ==========
# Compute total and partial pair distribution functions
compute         myrdf all rdf 200 1 1 1 2 2 2 cutoff 12.0

# Time-average RDF output
fix             rdfout all ave/time 100 10 1000 c_myrdf[*] file rdf.dat mode vector

# ========== Equilibration (NVT) ==========
print "========== H100 GPU Equilibration =========="
========== H100 GPU Equilibration ==========

# Start with small timestep for stability
timestep        0.5

fix             nvt all nvt temp 423.15 423.15 100.0
run             5000
Generated 0 of 1 mixed pair_coeff terms from geometric mixing rule
Neighbor list info ...
  update: every = 1 steps, delay = 0 steps, check = yes
  max neighbors/atom: 2000, page size: 100000
  master list distance cutoff = 14
  ghost atom cutoff = 14
  binsize = 4, bins = 19 19 19
  3 neighbor lists, perpetual/occasional/extra = 2 1 0
  (1) pair lj/cut, perpetual
      attributes: full, newton off, kokkos_device
      pair build: full/bin/kk/device
      stencil: full/bin/3d
      bin: kk/device
  (2) pair table, perpetual, copy from (1)
      attributes: full, newton off, kokkos_device
      pair build: copy/kk/device
      stencil: none
      bin: none
  (3) compute rdf, occasional
      attributes: half, newton off
      pair build: half/bin/atomonly/newtoff
      stencil: full/bin/3d
      bin: standard
Per MPI rank memory allocation (min/avg/max) = 12.06 | 12.06 | 12.06 Mbytes
   Step          Temp          PotEng         KinEng         TotEng         Press          Volume        Density          CPU      
         0   423.15        -65387.513      25225.334     -40162.179      6465.046       402592.25      6.2796667      0            
      1000   323.47458     -48268.832      19283.361     -28985.471      20601.63       402592.25      6.2796667      2.8910847    
      2000   431.51027     -42228.558      25723.717     -16504.842      26446.972      402592.25      6.2796667      5.9814639    
      3000   424.1093      -42376.464      25282.521     -17093.943      26291.392      402592.25      6.2796667      9.0785445    
      4000   422.99087     -42224.096      25215.848     -17008.248      26436.916      402592.25      6.2796667      12.168189    
      5000   423.70083     -41928.472      25258.171     -16670.301      26680.086      402592.25      6.2796667      15.258963    
Loop time of 15.259 on 1 procs for 5000 steps with 20000 atoms

Performance: 14.156 ns/day, 1.695 hours/ns, 327.676 timesteps/s, 6.554 Matom-step/s
99.9% CPU use with 1 MPI tasks x 1 OpenMP threads

MPI task timing breakdown:
Section |  min time  |  avg time  |  max time  |%varavg| %total
---------------------------------------------------------------
Pair    | 2.5101     | 2.5101     | 2.5101     |   0.0 | 16.45
Neigh   | 0.037803   | 0.037803   | 0.037803   |   0.0 |  0.25
Comm    | 0.048935   | 0.048935   | 0.048935   |   0.0 |  0.32
Output  | 0.0017309  | 0.0017309  | 0.0017309  |   0.0 |  0.01
Modify  | 12.48      | 12.48      | 12.48      |   0.0 | 81.79
Other   |            | 0.1802     |            |       |  1.18

Nlocal:          20000 ave       20000 max       20000 min
Histogram: 1 0 0 0 0 0 0 0 0 0
Nghost:          32453 ave       32453 max       32453 min
Histogram: 1 0 0 0 0 0 0 0 0 0
Neighs:     6.8399e+06 ave  6.8399e+06 max  6.8399e+06 min
Histogram: 1 0 0 0 0 0 0 0 0 0
FullNghs:  1.13984e+07 ave 1.13984e+07 max 1.13984e+07 min
Histogram: 1 0 0 0 0 0 0 0 0 0

Total # of neighbors = 11398432
Ave neighs/atom = 569.9216
Neighbor list builds = 23
Dangerous builds = 0
unfix           nvt

# Increase timestep to normal
timestep        2.0

fix             nvt all nvt temp 423.15 423.15 100.0
run             15000
Generated 0 of 1 mixed pair_coeff terms from geometric mixing rule
Per MPI rank memory allocation (min/avg/max) = 38.39 | 38.39 | 38.39 Mbytes
   Step          Temp          PotEng         KinEng         TotEng         Press          Volume        Density          CPU      
      5000   423.70083     -41928.472      25258.171     -16670.301      26680.086      402592.25      6.2796667      0            
      6000   421.34804     -41802.342      25117.913     -16684.428      26754.214      402592.25      6.2796667      4.1606065    
      7000   422.06083     -42006.484      25160.405     -16846.079      26614.924      402592.25      6.2796667      8.3253594    
      8000   424.15044     -41688.693      25284.973     -16403.72       26875.798      402592.25      6.2796667      12.481835    
      9000   422.34178     -41885.174      25177.153     -16708.021      26681.184      402592.25      6.2796667      16.643345    
     10000   422.32389     -41693.974      25176.087     -16517.887      26870.371      402592.25      6.2796667      20.80096     
     11000   427.16615     -41975.933      25464.75      -16511.184      26659.736      402592.25      6.2796667      24.961704    
     12000   426.1004      -41672.761      25401.217     -16271.544      26920.382      402592.25      6.2796667      29.125627    
     13000   423.17597     -41651.978      25226.882     -16425.096      26901.018      402592.25      6.2796667      33.295671    
     14000   420.00099     -41781.766      25037.611     -16744.154      26773.216      402592.25      6.2796667      37.467376    
     15000   426.29173     -41705.151      25412.623     -16292.529      26867.183      402592.25      6.2796667      41.638425    
     16000   422.15657     -41743.291      25166.113     -16577.178      26814.182      402592.25      6.2796667      45.808069    
     17000   423.60794     -41903.223      25252.633     -16650.59       26698.683      402592.25      6.2796667      49.97079     
     18000   422.92631     -41944.667      25212         -16732.667      26666.6        402592.25      6.2796667      54.132402    
     19000   421.97411     -41870.556      25155.236     -16715.32       26720.737      402592.25      6.2796667      58.316116    
     20000   418.19509     -41781.573      24929.956     -16851.617      26783.954      402592.25      6.2796667      62.487486    
Loop time of 62.4875 on 1 procs for 15000 steps with 20000 atoms

Performance: 41.480 ns/day, 0.579 hours/ns, 240.048 timesteps/s, 4.801 Matom-step/s
100.0% CPU use with 1 MPI tasks x 1 OpenMP threads

MPI task timing breakdown:
Section |  min time  |  avg time  |  max time  |%varavg| %total
---------------------------------------------------------------
Pair    | 7.5682     | 7.5682     | 7.5682     |   0.0 | 12.11
Neigh   | 0.46473    | 0.46473    | 0.46473    |   0.0 |  0.74
Comm    | 0.37308    | 0.37308    | 0.37308    |   0.0 |  0.60
Output  | 0.0052669  | 0.0052669  | 0.0052669  |   0.0 |  0.01
Modify  | 53.443     | 53.443     | 53.443     |   0.0 | 85.53
Other   |            | 0.6337     |            |       |  1.01

Nlocal:          20000 ave       20000 max       20000 min
Histogram: 1 0 0 0 0 0 0 0 0 0
Nghost:          32499 ave       32499 max       32499 min
Histogram: 1 0 0 0 0 0 0 0 0 0
Neighs:    6.84402e+06 ave 6.84402e+06 max 6.84402e+06 min
Histogram: 1 0 0 0 0 0 0 0 0 0
FullNghs:  1.13986e+07 ave 1.13986e+07 max 1.13986e+07 min
Histogram: 1 0 0 0 0 0 0 0 0 0

Total # of neighbors = 11398630
Ave neighs/atom = 569.9315
Neighbor list builds = 293
Dangerous builds = 0
unfix           nvt

# ========== Production (NVT) ==========
print "========== H100 GPU Production run =========="
========== H100 GPU Production run ==========

fix             nvt all nvt temp 423.15 423.15 100.0

# Reset RDF for production run
uncompute       myrdf
compute         myrdf all rdf 200 1 1 1 2 2 2 cutoff 12.0
unfix           rdfout
fix             rdfout all ave/time 100 10 1000 c_myrdf[*] file rdf.dat mode vector

run             50000
Generated 0 of 1 mixed pair_coeff terms from geometric mixing rule
Neighbor list info ...
  update: every = 1 steps, delay = 0 steps, check = yes
  max neighbors/atom: 2000, page size: 100000
  master list distance cutoff = 14
  ghost atom cutoff = 14
  binsize = 4, bins = 19 19 19
  3 neighbor lists, perpetual/occasional/extra = 2 1 0
  (1) pair lj/cut, perpetual
      attributes: full, newton off, kokkos_device
      pair build: full/bin/kk/device
      stencil: full/bin/3d
      bin: kk/device
  (2) pair table, perpetual, copy from (1)
      attributes: full, newton off, kokkos_device
      pair build: copy/kk/device
      stencil: none
      bin: none
  (3) compute rdf, occasional
      attributes: half, newton off
      pair build: half/bin/atomonly/newtoff
      stencil: full/bin/3d
      bin: standard
Per MPI rank memory allocation (min/avg/max) = 12.06 | 12.06 | 12.06 Mbytes
   Step          Temp          PotEng         KinEng         TotEng         Press          Volume        Density          CPU      
     20000   418.19509     -41781.573      24929.956     -16851.617      26783.954      402592.25      6.2796667      0            
     21000   419.15211     -42045.352      24987.007     -17058.345      26533.941      402592.25      6.2796667      4.1644606    
     22000   427.75183     -41802.925      25499.664     -16303.261      26801.2        402592.25      6.2796667      8.3392413    
     23000   423.79772     -41801.282      25263.947     -16537.335      26767.45       402592.25      6.2796667      12.501738    
     24000   424.02269     -41909.848      25277.358     -16632.489      26693.523      402592.25      6.2796667      16.6599      
     25000   417.59138     -41760.857      24893.967     -16866.89       26776.745      402592.25      6.2796667      20.821121    
     26000   423.55014     -41612.592      25249.188     -16363.404      26945.832      402592.25      6.2796667      24.98986     
     27000   420.85983     -41883.357      25088.81      -16794.547      26698.947      402592.25      6.2796667      29.154448    
     28000   423.98524     -41910.668      25275.126     -16635.542      26689.119      402592.25      6.2796667      33.321137    
     29000   426.86625     -42024.137      25446.871     -16577.265      26600.329      402592.25      6.2796667      37.490241    
     30000   425.87512     -41719.781      25387.787     -16331.994      26889.865      402592.25      6.2796667      41.665459    
     31000   420.58158     -41697.742      25072.223     -16625.519      26849.623      402592.25      6.2796667      45.821476    
     32000   423.14881     -41791.56       25225.263     -16566.297      26782.558      402592.25      6.2796667      49.984077    
     33000   425.20839     -41627.811      25348.041     -16279.77       26935.815      402592.25      6.2796667      54.153612    
     34000   421.44641     -41586.887      25123.778     -16463.109      26922.316      402592.25      6.2796667      58.323389    
     35000   418.32966     -41757.266      24937.978     -16819.287      26791.996      402592.25      6.2796667      62.474562    
     36000   423.23382     -41684.342      25230.331     -16454.011      26869.29       402592.25      6.2796667      66.633813    
     37000   421.45011     -41537.785      25123.998     -16413.787      26989.688      402592.25      6.2796667      70.812468    
     38000   425.33784     -41683.945      25355.758     -16328.187      26901.795      402592.25      6.2796667      74.983482    
     39000   419.37564     -41919.888      25000.332     -16919.555      26645.162      402592.25      6.2796667      79.150201    
     40000   423.8627      -41693.341      25267.82      -16425.521      26865.599      402592.25      6.2796667      83.321829    
     41000   425.28955     -41582.686      25352.88      -16229.807      26984.434      402592.25      6.2796667      87.490273    
     42000   421.87739     -41884.348      25149.47      -16734.878      26694.37       402592.25      6.2796667      91.656859    
     43000   423.2098      -41755.43       25228.899     -16526.531      26816.919      402592.25      6.2796667      95.83182     
     44000   422.53112     -41743.907      25188.441     -16555.467      26849.619      402592.25      6.2796667      100.00154    
     45000   422.1503      -41786.918      25165.739     -16621.18       26771.476      402592.25      6.2796667      104.18811    
     46000   425.22454     -41706.315      25349.004     -16357.311      26864.685      402592.25      6.2796667      108.3537     
     47000   421.50626     -41794.564      25127.345     -16667.219      26761.722      402592.25      6.2796667      112.5114     
     48000   418.19075     -41907.455      24929.697     -16977.758      26633.529      402592.25      6.2796667      116.67424    
     49000   421.14742     -41892.093      25105.954     -16786.139      26704.425      402592.25      6.2796667      120.84374    
     50000   419.85576     -41929.607      25028.954     -16900.653      26659.512      402592.25      6.2796667      125.012      
     51000   421.29219     -41590.972      25114.584     -16476.387      26952.512      402592.25      6.2796667      129.17773    
     52000   427.57338     -41797.798      25489.026     -16308.772      26806.9        402592.25      6.2796667      133.35281    
     53000   421.59629     -41617.626      25132.712     -16484.913      26922.872      402592.25      6.2796667      137.52166    
     54000   421.72817     -41817.942      25140.574     -16677.368      26782.549      402592.25      6.2796667      141.69782    
     55000   424.95892     -41748.829      25333.169     -16415.659      26830.177      402592.25      6.2796667      145.87339    
     56000   422.67648     -41855.613      25197.106     -16658.507      26734.814      402592.25      6.2796667      150.03675    
     57000   422.60977     -41733.848      25193.129     -16540.718      26833.666      402592.25      6.2796667      154.21023    
     58000   420.18554     -41906.749      25048.613     -16858.136      26669.792      402592.25      6.2796667      158.37341    
     59000   423.97647     -41864.421      25274.603     -16589.818      26746.022      402592.25      6.2796667      162.53986    
     60000   428.56617     -41773.688      25548.209     -16225.478      26824.834      402592.25      6.2796667      166.69847    
     61000   425.58534     -41841.108      25370.513     -16470.595      26762.16       402592.25      6.2796667      170.87279    
     62000   423.09991     -41731.328      25222.348     -16508.98       26839.76       402592.25      6.2796667      175.03364    
     63000   424.85327     -41861.193      25326.872     -16534.322      26762.477      402592.25      6.2796667      179.2028     
     64000   421.71473     -42004.611      25139.773     -16864.838      26601.19       402592.25      6.2796667      183.37274    
     65000   423.0089      -41662.221      25216.923     -16445.298      26885.995      402592.25      6.2796667      187.53291    
     66000   419.80887     -41814.158      25026.159     -16788          26735.353      402592.25      6.2796667      191.70046    
     67000   423.98392     -41975.872      25275.047     -16700.825      26633.663      402592.25      6.2796667      195.87451    
     68000   424.46909     -41736.051      25303.969     -16432.082      26847.594      402592.25      6.2796667      200.02926    
     69000   421.12363     -41881.234      25104.536     -16776.698      26694.629      402592.25      6.2796667      204.18918    
     70000   426.80888     -41479.771      25443.452     -16036.32       27095.469      402592.25      6.2796667      208.34286    
Loop time of 208.343 on 1 procs for 50000 steps with 20000 atoms

Performance: 41.470 ns/day, 0.579 hours/ns, 239.989 timesteps/s, 4.800 Matom-step/s
100.0% CPU use with 1 MPI tasks x 1 OpenMP threads

MPI task timing breakdown:
Section |  min time  |  avg time  |  max time  |%varavg| %total
---------------------------------------------------------------
Pair    | 25.221     | 25.221     | 25.221     |   0.0 | 12.11
Neigh   | 1.5526     | 1.5526     | 1.5526     |   0.0 |  0.75
Comm    | 1.2433     | 1.2433     | 1.2433     |   0.0 |  0.60
Output  | 0.017896   | 0.017896   | 0.017896   |   0.0 |  0.01
Modify  | 178.21     | 178.21     | 178.21     |   0.0 | 85.54
Other   |            | 2.1        |            |       |  1.01

Nlocal:          20000 ave       20000 max       20000 min
Histogram: 1 0 0 0 0 0 0 0 0 0
Nghost:          32474 ave       32474 max       32474 min
Histogram: 1 0 0 0 0 0 0 0 0 0
Neighs:     6.8393e+06 ave  6.8393e+06 max  6.8393e+06 min
Histogram: 1 0 0 0 0 0 0 0 0 0
FullNghs:  1.13994e+07 ave 1.13994e+07 max 1.13994e+07 min
Histogram: 1 0 0 0 0 0 0 0 0 0

Total # of neighbors = 11399432
Ave neighs/atom = 569.9716
Neighbor list builds = 978
Dangerous builds = 0
unfix           nvt

# ========== Finalize ==========
print "========== H100 GPU Simulation completed =========="
========== H100 GPU Simulation completed ==========

# Write restart file for next iteration (use fixed name to avoid shell command issues)
write_restart   outputs/restart.0.data
System init for write_restart ...
Generated 0 of 1 mixed pair_coeff terms from geometric mixing rule

# Final statistics
variable        density_final equal density
variable        temp_final equal temp
variable        press_final equal press

print "========================================="
=========================================
print "FINAL RESULTS:"
FINAL RESULTS:
print "  Density:     ${density_final} g/cm^3"
  Density:     6.27966666056993 g/cm^3
print "  Temperature: ${temp_final} K"
  Temperature: 426.808876459797 K
print "  Pressure:    ${press_final} bar"
  Pressure:    27095.4690760748 bar
print "========================================="
=========================================

print "RDF written to rdf.dat"
RDF written to rdf.dat
print "Restart file written to outputs/restart.0.data"
Restart file written to outputs/restart.0.data
Total wall time: 0:04:46
