LAMMPS (22 Jul 2025 - Update 2)
KOKKOS mode with Kokkos version 4.6.2 is enabled
  will use up to 1 GPU(s) per node
  using 1 OpenMP thread(s) per MPI task
package kokkos
# H100 GPU-Optimized LAMMPS input for EPSR simulation of EGaIn eutectic alloy
# Composition: Ga0.858In0.142
# Temperature: 150Â°C (423.15 K)
# Potential: LJ + Empirical Potential (table)
# GPU: Using KOKKOS for H100 (Hopper architecture)

# ========== KOKKOS Initialization (CRITICAL: Must be first) ==========
# CRITICAL FIX: newton off prevents KOKKOS errors on H100
# Note: pair_style table does not have /kk support, but will run on CPU while LJ runs on GPU
package         kokkos neigh full newton off

# ========== Initialization ==========
units           real
atom_style      atomic
boundary        p p p

# ========== Force field ==========
# Use hybrid/overlay to combine LJ (GPU-accelerated) and table (CPU)
# The -sf kk flag will automatically use lj/cut/kk while table runs on CPU
# NOTE: pair_style must be defined BEFORE read_data if data file contains Pair Coeffs section
pair_style      hybrid/overlay lj/cut 12.0 table linear 200

# ========== Read structure ==========
# Use LJ-equilibrated structure as initial configuration (more stable)
shell           mkdir -p outputs
# nocoeff skips Pair Coeffs section which is incompatible with hybrid/overlay
read_data       outputs/final_structure_lj_H100.data nocoeff
Reading data file ...
  orthogonal box = (0 0 0) to (73.839453 73.839453 73.839453)
  1 by 1 by 1 MPI processor grid
WARNING: Pair style lj/cut/kk in data file differs from currently defined pair style zero (src/read_data.cpp:811)
  reading atoms ...
  20000 atoms
  reading velocities ...
  20000 velocities
  read_data CPU = 0.097 seconds

# LJ potential (GPU-accelerated with -sf kk flag)
pair_coeff      1 1 lj/cut 0.430 2.70    # Ga-Ga
pair_coeff      2 2 lj/cut 0.430 3.11    # In-In
pair_coeff      1 2 lj/cut 0.430 2.905   # Ga-In

# Empirical potential (from table files - runs on CPU)
# Table format: r, U(r), F(r)
pair_coeff      1 1 table data/ep_GaGa.table EP_GAGA 12.0
pair_coeff      2 2 table data/ep_InIn.table EP_ININ 12.0
pair_coeff      1 2 table data/ep_GaIn.table EP_GAIN 12.0

# ========== Settings ==========
mass            1 69.723    # Ga
mass            2 114.818   # In

# Optimized neighbor list for GPU
neighbor        2.0 bin
neigh_modify    delay 0 every 1 check yes binsize 4.0

# ========== Initial velocity ==========
# Re-initialize velocities for this temperature
velocity        all create 423.15 12345 dist gaussian

# ========== Thermodynamic output ==========
thermo          1000
thermo_style    custom step temp pe ke etotal press vol density cpu

# ========== Quick minimization for stability ==========
print "========== Energy Minimization =========="
========== Energy Minimization ==========
minimize        1.0e-4 1.0e-6 1000 10000
Generated 0 of 1 mixed pair_coeff terms from geometric mixing rule
Neighbor list info ...
  update: every = 1 steps, delay = 0 steps, check = yes
  max neighbors/atom: 2000, page size: 100000
  master list distance cutoff = 14
  ghost atom cutoff = 14
  binsize = 4, bins = 19 19 19
  2 neighbor lists, perpetual/occasional/extra = 2 0 0
  (1) pair lj/cut, perpetual
      attributes: full, newton off, kokkos_device
      pair build: full/bin/kk/device
      stencil: full/bin/3d
      bin: kk/device
  (2) pair table, perpetual, copy from (1)
      attributes: full, newton off, kokkos_device
      pair build: copy/kk/device
      stencil: none
      bin: none
WARNING: Fix MINIMIZE/kk not compatible with sending data in Kokkos communication (src/KOKKOS/comm_kokkos.cpp:767)
WARNING: Fix with atom-based arrays not compatible with sending data in Kokkos communication, switching to classic exchange/border communication (src/KOKKOS/comm_kokkos.cpp:780)
WARNING: Fix MINIMIZE/kk not compatible with Kokkos sorting on device (src/KOKKOS/atom_kokkos.cpp:212)
WARNING: Fix with atom-based arrays not compatible with Kokkos sorting on device, switching to classic host sorting (src/KOKKOS/atom_kokkos.cpp:218)
Per MPI rank memory allocation (min/avg/max) = 13.71 | 13.71 | 13.71 Mbytes
   Step          Temp          PotEng         KinEng         TotEng         Press          Volume        Density          CPU      
         0   423.15        -81064.615      25225.334     -55839.281      37175.858      402592.25      6.2796667      0            
       123   423.15        -103810.63      25225.334     -78585.294      20607.677      402592.25      6.2796667      0.18097349   
Loop time of 0.18098 on 1 procs for 123 steps with 20000 atoms

100.0% CPU use with 1 MPI tasks x 1 OpenMP threads

Minimization stats:
  Stopping criterion = energy tolerance
  Energy initial, next-to-last, final = 
     -81064.6153701557  -103806.205642507  -103810.628343039
  Force two-norm initial, final = 1502.8634 17.553862
  Force max component initial, final = 43.16851 3.4177424
  Final line search alpha, max atom move = 0.018338261 0.062675453
  Iterations, force evaluations = 123 124

MPI task timing breakdown:
Section |  min time  |  avg time  |  max time  |%varavg| %total
---------------------------------------------------------------
Pair    | 0.15045    | 0.15045    | 0.15045    |   0.0 | 83.13
Neigh   | 0.0049138  | 0.0049138  | 0.0049138  |   0.0 |  2.72
Comm    | 0.0060798  | 0.0060798  | 0.0060798  |   0.0 |  3.36
Output  | 0          | 0          | 0          |   0.0 |  0.00
Modify  | 0          | 0          | 0          |   0.0 |  0.00
Other   |            | 0.01953    |            |       | 10.79

Nlocal:          20000 ave       20000 max       20000 min
Histogram: 1 0 0 0 0 0 0 0 0 0
Nghost:          32438 ave       32438 max       32438 min
Histogram: 1 0 0 0 0 0 0 0 0 0
Neighs:              0 ave           0 max           0 min
Histogram: 1 0 0 0 0 0 0 0 0 0
FullNghs:  1.14436e+07 ave 1.14436e+07 max 1.14436e+07 min
Histogram: 1 0 0 0 0 0 0 0 0 0

Total # of neighbors = 11443594
Ave neighs/atom = 572.1797
Neighbor list builds = 4
Dangerous builds = 0
reset_timestep  0

# ========== RDF computation ==========
# Compute total and partial pair distribution functions
compute         myrdf all rdf 200 1 1 1 2 2 2 cutoff 12.0

# Time-average RDF output
fix             rdfout all ave/time 100 10 1000 c_myrdf[*] file rdf.dat mode vector

# ========== Equilibration (NVT) ==========
print "========== H100 GPU Equilibration =========="
========== H100 GPU Equilibration ==========

# Start with small timestep for stability
timestep        0.5

fix             nvt all nvt temp 423.15 423.15 100.0
run             5000
Generated 0 of 1 mixed pair_coeff terms from geometric mixing rule
Neighbor list info ...
  update: every = 1 steps, delay = 0 steps, check = yes
  max neighbors/atom: 2000, page size: 100000
  master list distance cutoff = 14
  ghost atom cutoff = 14
  binsize = 4, bins = 19 19 19
  3 neighbor lists, perpetual/occasional/extra = 2 1 0
  (1) pair lj/cut, perpetual
      attributes: full, newton off, kokkos_device
      pair build: full/bin/kk/device
      stencil: full/bin/3d
      bin: kk/device
  (2) pair table, perpetual, copy from (1)
      attributes: full, newton off, kokkos_device
      pair build: copy/kk/device
      stencil: none
      bin: none
  (3) compute rdf, occasional
      attributes: half, newton off
      pair build: half/bin/atomonly/newtoff
      stencil: full/bin/3d
      bin: standard
Per MPI rank memory allocation (min/avg/max) = 12.06 | 12.06 | 12.06 Mbytes
   Step          Temp          PotEng         KinEng         TotEng         Press          Volume        Density          CPU      
         0   423.15        -103810.63      25225.334     -78585.294      20607.677      402592.25      6.2796667      0            
      1000   324.28778     -86719.721      19331.839     -67387.882      33428.125      402592.25      6.2796667      2.8753086    
      2000   429.89161     -80909.984      25627.223     -55282.761      38659.992      402592.25      6.2796667      5.9400848    
      3000   422.68262     -81105.643      25197.472     -55908.171      38289.87       402592.25      6.2796667      9.0235359    
      4000   422.0666      -80996.636      25160.749     -55835.886      38390.466      402592.25      6.2796667      12.109221    
      5000   426.12785     -80998.417      25402.853     -55595.564      38399.176      402592.25      6.2796667      15.195275    
Loop time of 15.1953 on 1 procs for 5000 steps with 20000 atoms

Performance: 14.215 ns/day, 1.688 hours/ns, 329.049 timesteps/s, 6.581 Matom-step/s
99.9% CPU use with 1 MPI tasks x 1 OpenMP threads

MPI task timing breakdown:
Section |  min time  |  avg time  |  max time  |%varavg| %total
---------------------------------------------------------------
Pair    | 2.5021     | 2.5021     | 2.5021     |   0.0 | 16.47
Neigh   | 0.037157   | 0.037157   | 0.037157   |   0.0 |  0.24
Comm    | 0.050291   | 0.050291   | 0.050291   |   0.0 |  0.33
Output  | 0.0017097  | 0.0017097  | 0.0017097  |   0.0 |  0.01
Modify  | 12.433     | 12.433     | 12.433     |   0.0 | 81.82
Other   |            | 0.1711     |            |       |  1.13

Nlocal:          20000 ave       20000 max       20000 min
Histogram: 1 0 0 0 0 0 0 0 0 0
Nghost:          32531 ave       32531 max       32531 min
Histogram: 1 0 0 0 0 0 0 0 0 0
Neighs:    6.85432e+06 ave 6.85432e+06 max 6.85432e+06 min
Histogram: 1 0 0 0 0 0 0 0 0 0
FullNghs:  1.14139e+07 ave 1.14139e+07 max 1.14139e+07 min
Histogram: 1 0 0 0 0 0 0 0 0 0

Total # of neighbors = 11413936
Ave neighs/atom = 570.6968
Neighbor list builds = 23
Dangerous builds = 0
unfix           nvt

# Increase timestep to normal
timestep        2.0

fix             nvt all nvt temp 423.15 423.15 100.0
run             15000
Generated 0 of 1 mixed pair_coeff terms from geometric mixing rule
Per MPI rank memory allocation (min/avg/max) = 38.39 | 38.39 | 38.39 Mbytes
   Step          Temp          PotEng         KinEng         TotEng         Press          Volume        Density          CPU      
      5000   426.12785     -80998.417      25402.853     -55595.564      38399.176      402592.25      6.2796667      0            
      6000   425.3948      -80709.433      25359.154     -55350.28       38623.323      402592.25      6.2796667      4.163672     
      7000   424.76066     -80724.307      25321.351     -55402.956      38618.702      402592.25      6.2796667      8.318835     
      8000   425.13255     -80709.764      25343.52      -55366.244      38654.749      402592.25      6.2796667      12.484773    
      9000   421.92076     -80857.551      25152.055     -55705.496      38369.304      402592.25      6.2796667      16.650912    
     10000   422.1293      -80801.672      25164.487     -55637.186      38522.374      402592.25      6.2796667      20.808484    
     11000   425.546       -80436.678      25368.167     -55068.51       38788.347      402592.25      6.2796667      24.981118    
     12000   417.13831     -80594.697      24866.958     -55727.739      38625.602      402592.25      6.2796667      29.140773    
     13000   424.81178     -80822.394      25324.398     -55497.996      38507.223      402592.25      6.2796667      33.292843    
     14000   424.80421     -80832.324      25323.947     -55508.377      38480.851      402592.25      6.2796667      37.455768    
     15000   424.88725     -80809.962      25328.897     -55481.065      38440.572      402592.25      6.2796667      41.609618    
     16000   427.50252     -80777.589      25484.802     -55292.788      38593.545      402592.25      6.2796667      45.778979    
     17000   426.16968     -80714.355      25405.347     -55309.008      38628.165      402592.25      6.2796667      49.94408     
     18000   427.40704     -80858.502      25479.11      -55379.393      38626.531      402592.25      6.2796667      54.097361    
     19000   420.37668     -80893.768      25060.008     -55833.761      38488.076      402592.25      6.2796667      58.254656    
     20000   423.36721     -80657.836      25238.283     -55419.553      38621.697      402592.25      6.2796667      62.423486    
Loop time of 62.4235 on 1 procs for 15000 steps with 20000 atoms

Performance: 41.523 ns/day, 0.578 hours/ns, 240.294 timesteps/s, 4.806 Matom-step/s
100.0% CPU use with 1 MPI tasks x 1 OpenMP threads

MPI task timing breakdown:
Section |  min time  |  avg time  |  max time  |%varavg| %total
---------------------------------------------------------------
Pair    | 7.5674     | 7.5674     | 7.5674     |   0.0 | 12.12
Neigh   | 0.46467    | 0.46467    | 0.46467    |   0.0 |  0.74
Comm    | 0.36846    | 0.36846    | 0.36846    |   0.0 |  0.59
Output  | 0.0050751  | 0.0050751  | 0.0050751  |   0.0 |  0.01
Modify  | 53.416     | 53.416     | 53.416     |   0.0 | 85.57
Other   |            | 0.602      |            |       |  0.96

Nlocal:          20000 ave       20000 max       20000 min
Histogram: 1 0 0 0 0 0 0 0 0 0
Nghost:          32525 ave       32525 max       32525 min
Histogram: 1 0 0 0 0 0 0 0 0 0
Neighs:     6.8518e+06 ave  6.8518e+06 max  6.8518e+06 min
Histogram: 1 0 0 0 0 0 0 0 0 0
FullNghs:  1.14143e+07 ave 1.14143e+07 max 1.14143e+07 min
Histogram: 1 0 0 0 0 0 0 0 0 0

Total # of neighbors = 11414256
Ave neighs/atom = 570.7128
Neighbor list builds = 293
Dangerous builds = 0
unfix           nvt

# ========== Production (NVT) ==========
print "========== H100 GPU Production run =========="
========== H100 GPU Production run ==========

fix             nvt all nvt temp 423.15 423.15 100.0

# Reset RDF for production run
uncompute       myrdf
compute         myrdf all rdf 200 1 1 1 2 2 2 cutoff 12.0
unfix           rdfout
fix             rdfout all ave/time 100 10 1000 c_myrdf[*] file rdf.dat mode vector

run             100000
Generated 0 of 1 mixed pair_coeff terms from geometric mixing rule
Neighbor list info ...
  update: every = 1 steps, delay = 0 steps, check = yes
  max neighbors/atom: 2000, page size: 100000
  master list distance cutoff = 14
  ghost atom cutoff = 14
  binsize = 4, bins = 19 19 19
  3 neighbor lists, perpetual/occasional/extra = 2 1 0
  (1) pair lj/cut, perpetual
      attributes: full, newton off, kokkos_device
      pair build: full/bin/kk/device
      stencil: full/bin/3d
      bin: kk/device
  (2) pair table, perpetual, copy from (1)
      attributes: full, newton off, kokkos_device
      pair build: copy/kk/device
      stencil: none
      bin: none
  (3) compute rdf, occasional
      attributes: half, newton off
      pair build: half/bin/atomonly/newtoff
      stencil: full/bin/3d
      bin: standard
Per MPI rank memory allocation (min/avg/max) = 12.07 | 12.07 | 12.07 Mbytes
   Step          Temp          PotEng         KinEng         TotEng         Press          Volume        Density          CPU      
     20000   423.36721     -80657.836      25238.283     -55419.553      38621.697      402592.25      6.2796667      0            
     21000   420.11115     -80791.913      25044.178     -55747.735      38462.984      402592.25      6.2796667      4.1582968    
     22000   422.34207     -80874.514      25177.171     -55697.343      38472.973      402592.25      6.2796667      8.3227424    
     23000   421.07117     -80599.27       25101.408     -55497.861      38664.036      402592.25      6.2796667      12.478416    
     24000   421.7612      -80835.182      25142.543     -55692.639      38430.86       402592.25      6.2796667      16.644772    
     25000   420.37463     -80712.853      25059.885     -55652.968      38514.997      402592.25      6.2796667      20.806313    
     26000   421.6246      -80704.262      25134.4       -55569.862      38594.234      402592.25      6.2796667      24.960698    
     27000   422.81366     -80571.343      25205.284     -55366.059      38680.786      402592.25      6.2796667      29.118686    
     28000   424.70389     -80694.286      25317.967     -55376.319      38604.994      402592.25      6.2796667      33.272564    
     29000   423.75567     -80624.173      25261.44      -55362.733      38681.422      402592.25      6.2796667      37.426791    
     30000   424.23105     -80765.039      25289.779     -55475.26       38531.671      402592.25      6.2796667      41.601449    
     31000   421.30866     -80448.023      25115.566     -55332.456      38785.121      402592.25      6.2796667      45.7608      
     32000   421.24731     -80623.547      25111.909     -55511.638      38640.106      402592.25      6.2796667      49.922532    
     33000   423.88798     -80677.436      25269.328     -55408.108      38615.265      402592.25      6.2796667      54.083894    
     34000   421.72994     -80567.693      25140.68      -55427.013      38656.943      402592.25      6.2796667      58.247248    
     35000   422.57905     -80734.341      25191.298     -55543.043      38576.264      402592.25      6.2796667      62.40651     
     36000   422.44001     -80576.331      25183.01      -55393.322      38731.882      402592.25      6.2796667      66.571083    
     37000   419.1934      -80625.447      24989.468     -55635.979      38637.902      402592.25      6.2796667      70.748467    
     38000   424.63371     -80508.884      25313.783     -55195.101      38896.092      402592.25      6.2796667      74.908898    
     39000   421.64795     -80724.985      25135.792     -55589.193      38593.583      402592.25      6.2796667      79.073806    
     40000   421.35342     -80712.428      25118.234     -55594.194      38562.765      402592.25      6.2796667      83.234081    
     41000   422.60298     -80737.833      25192.724     -55545.109      38552.656      402592.25      6.2796667      87.395072    
     42000   422.41384     -80772.136      25181.45      -55590.686      38537.645      402592.25      6.2796667      91.551389    
     43000   419.78751     -80572.387      25024.886     -55547.502      38761.017      402592.25      6.2796667      95.715899    
     44000   425.58322     -80753.899      25370.386     -55383.513      38519.984      402592.25      6.2796667      99.877218    
     45000   421.46962     -80796.807      25125.161     -55671.646      38457.871      402592.25      6.2796667      104.0378     
     46000   424.88881     -80651.049      25328.99      -55322.059      38740.023      402592.25      6.2796667      108.20104    
     47000   424.96608     -80781.593      25333.597     -55447.996      38538.207      402592.25      6.2796667      112.36837    
     48000   423.57099     -80701.546      25250.431     -55451.116      38570.096      402592.25      6.2796667      116.52299    
     49000   424.06222     -80705.815      25279.715     -55426.1        38669.339      402592.25      6.2796667      120.67874    
     50000   425.97201     -80969.688      25393.564     -55576.124      38344.339      402592.25      6.2796667      124.835      
     51000   423.23867     -80615.555      25230.62      -55384.935      38649.634      402592.25      6.2796667      128.99527    
     52000   420.56513     -80850.263      25071.242     -55779.021      38495.114      402592.25      6.2796667      133.15658    
     53000   425.65708     -80617.852      25374.79      -55243.062      38611.071      402592.25      6.2796667      137.30932    
     54000   423.52679     -80639.647      25247.796     -55391.852      38589.284      402592.25      6.2796667      141.46457    
     55000   424.33084     -80731.897      25295.728     -55436.169      38524.224      402592.25      6.2796667      145.61102    
     56000   418.93229     -80664.308      24973.903     -55690.404      38676.748      402592.25      6.2796667      149.77443    
     57000   425.16562     -80834.584      25345.492     -55489.093      38567.244      402592.25      6.2796667      153.93175    
     58000   423.53159     -80617.141      25248.082     -55369.059      38585.865      402592.25      6.2796667      158.08724    
     59000   424.45223     -80795.963      25302.964     -55492.999      38451.05       402592.25      6.2796667      162.24372    
     60000   422.32304     -80648.855      25176.037     -55472.819      38656.104      402592.25      6.2796667      166.40809    
     61000   423.66798     -80772.366      25256.213     -55516.154      38445.158      402592.25      6.2796667      170.5629     
     62000   418.72021     -80778.183      24961.26      -55816.923      38486.258      402592.25      6.2796667      174.72558    
     63000   426.2921      -80698.415      25412.645     -55285.771      38572.592      402592.25      6.2796667      178.88097    
     64000   417.16699     -80688.136      24868.667     -55819.468      38633.636      402592.25      6.2796667      183.03404    
     65000   421.26318     -80683.93       25112.855     -55571.075      38567.973      402592.25      6.2796667      187.18772    
     66000   426.56029     -80667.505      25428.633     -55238.872      38726.941      402592.25      6.2796667      191.34725    
     67000   422.83282     -80904.518      25206.426     -55698.092      38455.226      402592.25      6.2796667      195.50323    
     68000   422.50198     -80691.674      25186.704     -55504.971      38519.338      402592.25      6.2796667      199.65386    
     69000   420.44771     -80783.39       25064.242     -55719.149      38515.746      402592.25      6.2796667      203.82479    
     70000   423.57593     -80491.759      25250.725     -55241.033      38744.066      402592.25      6.2796667      207.99007    
     71000   422.63966     -80652.245      25194.911     -55457.334      38593.05       402592.25      6.2796667      212.14892    
     72000   422.06359     -80731.751      25160.57      -55571.182      38592.704      402592.25      6.2796667      216.30457    
     73000   424.04064     -80508.995      25278.428     -55230.567      38717.853      402592.25      6.2796667      220.47391    
     74000   421.54929     -80803.565      25129.911     -55673.655      38469.046      402592.25      6.2796667      224.63015    
     75000   428.64835     -80709.766      25553.108     -55156.658      38557.645      402592.25      6.2796667      228.79141    
     76000   422.38708     -80821.687      25179.854     -55641.833      38499.202      402592.25      6.2796667      232.94826    
     77000   423.71477     -80811.47       25259.002     -55552.468      38585.911      402592.25      6.2796667      237.10434    
     78000   423.79228     -80786.893      25263.622     -55523.271      38474.703      402592.25      6.2796667      241.26952    
     79000   424.51117     -80568.043      25306.478     -55261.565      38700.445      402592.25      6.2796667      245.43434    
     80000   422.47023     -80984.676      25184.811     -55799.865      38338.357      402592.25      6.2796667      249.59487    
     81000   422.82309     -80688.461      25205.846     -55482.615      38588.998      402592.25      6.2796667      253.75198    
     82000   425.43265     -80598.1        25361.41      -55236.69       38704.531      402592.25      6.2796667      257.90776    
     83000   419.13692     -80764.054      24986.102     -55777.953      38510.588      402592.25      6.2796667      262.06148    
     84000   421.07446     -80673.045      25101.605     -55571.44       38628.844      402592.25      6.2796667      266.22022    
     85000   421.58725     -80844.167      25132.173     -55711.993      38444.951      402592.25      6.2796667      270.37998    
     86000   421.76825     -80654.946      25142.963     -55511.983      38522.804      402592.25      6.2796667      274.53694    
     87000   421.29264     -80357.818      25114.611     -55243.207      38816.52       402592.25      6.2796667      278.7        
     88000   417.08727     -80748.316      24863.915     -55884.401      38530.777      402592.25      6.2796667      282.85781    
     89000   427.49238     -80778.538      25484.197     -55294.34       38548.177      402592.25      6.2796667      287.02097    
     90000   428.50145     -80644.421      25544.352     -55100.069      38633.514      402592.25      6.2796667      291.18051    
     91000   421.94592     -80803.629      25153.555     -55650.074      38513.043      402592.25      6.2796667      295.33644    
     92000   422.67434     -80700.603      25196.978     -55503.625      38521.285      402592.25      6.2796667      299.49731    
     93000   424.20419     -80726.077      25288.178     -55437.899      38510.025      402592.25      6.2796667      303.65496    
     94000   422.44023     -80754.547      25183.022     -55571.525      38531.04       402592.25      6.2796667      307.8124     
     95000   419.97989     -80662.226      25036.354     -55625.872      38610.74       402592.25      6.2796667      311.96633    
     96000   421.45838     -80792.557      25124.491     -55668.066      38567.552      402592.25      6.2796667      316.13337    
     97000   421.21998     -80934.612      25110.279     -55824.333      38325.108      402592.25      6.2796667      320.28933    
     98000   424.31036     -80783.551      25294.507     -55489.044      38526.093      402592.25      6.2796667      324.44229    
     99000   422.69176     -80856.367      25198.017     -55658.35       38474.42       402592.25      6.2796667      328.58931    
    100000   421.47949     -80929.18       25125.75      -55803.43       38413.612      402592.25      6.2796667      332.75169    
    101000   425.97669     -80609.659      25393.842     -55215.817      38660.625      402592.25      6.2796667      336.90483    
    102000   419.46195     -80812.301      25005.478     -55806.824      38530.027      402592.25      6.2796667      341.07075    
    103000   423.02007     -80615.717      25217.589     -55398.129      38617.534      402592.25      6.2796667      345.22275    
    104000   429.16233     -80958.797      25583.749     -55375.048      38413.029      402592.25      6.2796667      349.38397    
    105000   421.32033     -80773.315      25116.262     -55657.053      38551.003      402592.25      6.2796667      353.54942    
    106000   423.67918     -80666.834      25256.88      -55409.954      38576.578      402592.25      6.2796667      357.70066    
    107000   421.69008     -80630.988      25138.304     -55492.685      38571.511      402592.25      6.2796667      361.85902    
    108000   417.97516     -80831.384      24916.845     -55914.538      38497.325      402592.25      6.2796667      366.0196     
    109000   423.9067      -80831.15       25270.443     -55560.707      38431.687      402592.25      6.2796667      370.17901    
    110000   425.05731     -80838.061      25339.035     -55499.026      38517.991      402592.25      6.2796667      374.34307    
    111000   424.67674     -80613.538      25316.348     -55297.19       38679.811      402592.25      6.2796667      378.50273    
    112000   425.44735     -80855.586      25362.286     -55493.299      38524.482      402592.25      6.2796667      382.66705    
    113000   419.63108     -80707.727      25015.56      -55692.167      38583.644      402592.25      6.2796667      386.82758    
    114000   419.32299     -80768.905      24997.194     -55771.712      38475.972      402592.25      6.2796667      390.99164    
    115000   424.994       -80651.188      25335.261     -55315.927      38674.588      402592.25      6.2796667      395.15661    
    116000   420.0261      -80623.484      25039.108     -55584.376      38689.522      402592.25      6.2796667      399.3323     
    117000   419.63913     -80461.113      25016.04      -55445.073      38751.05       402592.25      6.2796667      403.49263    
    118000   418.35535     -80829.024      24939.51      -55889.514      38420.88       402592.25      6.2796667      407.66358    
    119000   428.70531     -80815.857      25556.504     -55259.353      38542.742      402592.25      6.2796667      411.82793    
    120000   421.91349     -80708.744      25151.622     -55557.122      38575.559      402592.25      6.2796667      415.98903    
Loop time of 415.989 on 1 procs for 100000 steps with 20000 atoms

Performance: 41.540 ns/day, 0.578 hours/ns, 240.391 timesteps/s, 4.808 Matom-step/s
100.0% CPU use with 1 MPI tasks x 1 OpenMP threads

MPI task timing breakdown:
Section |  min time  |  avg time  |  max time  |%varavg| %total
---------------------------------------------------------------
Pair    | 50.335     | 50.335     | 50.335     |   0.0 | 12.10
Neigh   | 3.092      | 3.092      | 3.092      |   0.0 |  0.74
Comm    | 2.4644     | 2.4644     | 2.4644     |   0.0 |  0.59
Output  | 0.034316   | 0.034316   | 0.034316   |   0.0 |  0.01
Modify  | 356.05     | 356.05     | 356.05     |   0.0 | 85.59
Other   |            | 4.015      |            |       |  0.97

Nlocal:          20000 ave       20000 max       20000 min
Histogram: 1 0 0 0 0 0 0 0 0 0
Nghost:          32402 ave       32402 max       32402 min
Histogram: 1 0 0 0 0 0 0 0 0 0
Neighs:    6.84692e+06 ave 6.84692e+06 max 6.84692e+06 min
Histogram: 1 0 0 0 0 0 0 0 0 0
FullNghs:  1.14128e+07 ave 1.14128e+07 max 1.14128e+07 min
Histogram: 1 0 0 0 0 0 0 0 0 0

Total # of neighbors = 11412750
Ave neighs/atom = 570.6375
Neighbor list builds = 1956
Dangerous builds = 0
unfix           nvt

# ========== Finalize ==========
print "========== H100 GPU Simulation completed =========="
========== H100 GPU Simulation completed ==========

# Write restart file for next iteration (use fixed name to avoid shell command issues)
write_restart   outputs/restart.0.data
System init for write_restart ...
Generated 0 of 1 mixed pair_coeff terms from geometric mixing rule

# Final statistics
variable        density_final equal density
variable        temp_final equal temp
variable        press_final equal press

print "========================================="
=========================================
print "FINAL RESULTS:"
FINAL RESULTS:
print "  Density:     ${density_final} g/cm^3"
  Density:     6.27966666056994 g/cm^3
print "  Temperature: ${temp_final} K"
  Temperature: 421.913487818742 K
print "  Pressure:    ${press_final} bar"
  Pressure:    38575.5590200125 bar
print "========================================="
=========================================

print "RDF written to rdf.dat"
RDF written to rdf.dat
print "Restart file written to outputs/restart.0.data"
Restart file written to outputs/restart.0.data
Total wall time: 0:08:14
