LAMMPS (22 Jul 2025 - Update 2)
KOKKOS mode with Kokkos version 4.6.2 is enabled
  will use up to 1 GPU(s) per node
  using 1 OpenMP thread(s) per MPI task
package kokkos
# H100 GPU-Optimized LAMMPS input for EPSR simulation of EGaIn eutectic alloy
# Composition: Ga0.858In0.142
# Temperature: 150Â°C (423.15 K)
# Potential: LJ + Empirical Potential (table)
# GPU: Using KOKKOS for H100 (Hopper architecture)

# ========== KOKKOS Initialization (CRITICAL: Must be first) ==========
# CRITICAL FIX: newton off prevents KOKKOS errors on H100
# Note: pair_style table does not have /kk support, but will run on CPU while LJ runs on GPU
package         kokkos neigh full newton off

# ========== Initialization ==========
units           real
atom_style      atomic
boundary        p p p

# ========== Force field ==========
# Use hybrid/overlay to combine LJ (GPU-accelerated) and table (CPU)
# The -sf kk flag will automatically use lj/cut/kk while table runs on CPU
# NOTE: pair_style must be defined BEFORE read_data if data file contains Pair Coeffs section
pair_style      hybrid/overlay lj/cut 12.0 table linear 200

# ========== Read structure ==========
# Use LJ-equilibrated structure as initial configuration (more stable)
shell           mkdir -p outputs
# nocoeff skips Pair Coeffs section which is incompatible with hybrid/overlay
read_data       outputs/final_structure_lj_H100.data nocoeff
Reading data file ...
  orthogonal box = (0 0 0) to (73.839453 73.839453 73.839453)
  1 by 1 by 1 MPI processor grid
WARNING: Pair style lj/cut/kk in data file differs from currently defined pair style zero (src/read_data.cpp:811)
  reading atoms ...
  20000 atoms
  reading velocities ...
  20000 velocities
  read_data CPU = 0.097 seconds

# LJ potential (GPU-accelerated with -sf kk flag)
pair_coeff      1 1 lj/cut 0.430 2.70    # Ga-Ga
pair_coeff      2 2 lj/cut 0.430 3.11    # In-In
pair_coeff      1 2 lj/cut 0.430 2.905   # Ga-In

# Empirical potential (from table files - runs on CPU)
# Table format: r, U(r), F(r)
pair_coeff      1 1 table data/ep_GaGa.table EP_GAGA 12.0
pair_coeff      2 2 table data/ep_InIn.table EP_ININ 12.0
pair_coeff      1 2 table data/ep_GaIn.table EP_GAIN 12.0

# ========== Settings ==========
mass            1 69.723    # Ga
mass            2 114.818   # In

# Optimized neighbor list for GPU
neighbor        2.0 bin
neigh_modify    delay 0 every 1 check yes binsize 4.0

# ========== Initial velocity ==========
# Re-initialize velocities for this temperature
velocity        all create 423.15 12345 dist gaussian

# ========== Thermodynamic output ==========
thermo          1000
thermo_style    custom step temp pe ke etotal press vol density cpu

# ========== Quick minimization for stability ==========
print "========== Energy Minimization =========="
========== Energy Minimization ==========
minimize        1.0e-4 1.0e-6 1000 10000
Generated 0 of 1 mixed pair_coeff terms from geometric mixing rule
Neighbor list info ...
  update: every = 1 steps, delay = 0 steps, check = yes
  max neighbors/atom: 2000, page size: 100000
  master list distance cutoff = 14
  ghost atom cutoff = 14
  binsize = 4, bins = 19 19 19
  2 neighbor lists, perpetual/occasional/extra = 2 0 0
  (1) pair lj/cut, perpetual
      attributes: full, newton off, kokkos_device
      pair build: full/bin/kk/device
      stencil: full/bin/3d
      bin: kk/device
  (2) pair table, perpetual, copy from (1)
      attributes: full, newton off, kokkos_device
      pair build: copy/kk/device
      stencil: none
      bin: none
WARNING: Fix MINIMIZE/kk not compatible with sending data in Kokkos communication (src/KOKKOS/comm_kokkos.cpp:767)
WARNING: Fix with atom-based arrays not compatible with sending data in Kokkos communication, switching to classic exchange/border communication (src/KOKKOS/comm_kokkos.cpp:780)
WARNING: Fix MINIMIZE/kk not compatible with Kokkos sorting on device (src/KOKKOS/atom_kokkos.cpp:212)
WARNING: Fix with atom-based arrays not compatible with Kokkos sorting on device, switching to classic host sorting (src/KOKKOS/atom_kokkos.cpp:218)
Per MPI rank memory allocation (min/avg/max) = 13.71 | 13.71 | 13.71 Mbytes
   Step          Temp          PotEng         KinEng         TotEng         Press          Volume        Density          CPU      
         0   423.15        -271958.11      25225.334     -246732.77      24169.534      402592.25      6.2796667      0            
        42   423.15        -290730.34      25225.334     -265505         4832.0856      402592.25      6.2796667      0.063221764  
Loop time of 0.0632279 on 1 procs for 42 steps with 20000 atoms

99.4% CPU use with 1 MPI tasks x 1 OpenMP threads

Minimization stats:
  Stopping criterion = energy tolerance
  Energy initial, next-to-last, final = 
     -271958.107467568  -290703.743208384  -290730.335979805
  Force two-norm initial, final = 1562.1174 40.479702
  Force max component initial, final = 43.845756 2.4286933
  Final line search alpha, max atom move = 0.0087753627 0.021312665
  Iterations, force evaluations = 42 42

MPI task timing breakdown:
Section |  min time  |  avg time  |  max time  |%varavg| %total
---------------------------------------------------------------
Pair    | 0.051001   | 0.051001   | 0.051001   |   0.0 | 80.66
Neigh   | 0.001267   | 0.001267   | 0.001267   |   0.0 |  2.00
Comm    | 0.0026523  | 0.0026523  | 0.0026523  |   0.0 |  4.19
Output  | 0          | 0          | 0          |   0.0 |  0.00
Modify  | 0          | 0          | 0          |   0.0 |  0.00
Other   |            | 0.008308   |            |       | 13.14

Nlocal:          20000 ave       20000 max       20000 min
Histogram: 1 0 0 0 0 0 0 0 0 0
Nghost:          32458 ave       32458 max       32458 min
Histogram: 1 0 0 0 0 0 0 0 0 0
Neighs:              0 ave           0 max           0 min
Histogram: 1 0 0 0 0 0 0 0 0 0
FullNghs:    1.141e+07 ave   1.141e+07 max   1.141e+07 min
Histogram: 1 0 0 0 0 0 0 0 0 0

Total # of neighbors = 11409988
Ave neighs/atom = 570.4994
Neighbor list builds = 1
Dangerous builds = 0
reset_timestep  0

# ========== RDF computation ==========
# Compute total and partial pair distribution functions
compute         myrdf all rdf 200 1 1 1 2 2 2 cutoff 12.0

# Time-average RDF output
fix             rdfout all ave/time 100 10 1000 c_myrdf[*] file rdf.dat mode vector

# ========== Equilibration (NVT) ==========
print "========== H100 GPU Equilibration =========="
========== H100 GPU Equilibration ==========

# Start with small timestep for stability
timestep        0.5

fix             nvt all nvt temp 423.15 423.15 100.0
run             5000
Generated 0 of 1 mixed pair_coeff terms from geometric mixing rule
Neighbor list info ...
  update: every = 1 steps, delay = 0 steps, check = yes
  max neighbors/atom: 2000, page size: 100000
  master list distance cutoff = 14
  ghost atom cutoff = 14
  binsize = 4, bins = 19 19 19
  3 neighbor lists, perpetual/occasional/extra = 2 1 0
  (1) pair lj/cut, perpetual
      attributes: full, newton off, kokkos_device
      pair build: full/bin/kk/device
      stencil: full/bin/3d
      bin: kk/device
  (2) pair table, perpetual, copy from (1)
      attributes: full, newton off, kokkos_device
      pair build: copy/kk/device
      stencil: none
      bin: none
  (3) compute rdf, occasional
      attributes: half, newton off
      pair build: half/bin/atomonly/newtoff
      stencil: full/bin/3d
      bin: standard
Per MPI rank memory allocation (min/avg/max) = 12.06 | 12.06 | 12.06 Mbytes
   Step          Temp          PotEng         KinEng         TotEng         Press          Volume        Density          CPU      
         0   423.15        -290730.34      25225.334     -265505         4832.0856      402592.25      6.2796667      0            
      1000   347.92717     -275126.05      20741.059     -254384.99      22511.4        402592.25      6.2796667      3.0766753    
      2000   428.78743     -271196.16      25561.399     -245634.76      27078.94       402592.25      6.2796667      5.9538222    
      3000   424.76163     -271098.64      25321.408     -245777.23      27024.44       402592.25      6.2796667      9.0355372    
      4000   427.4518      -271530.77      25481.779     -246048.99      26646.099      402592.25      6.2796667      12.11489     
      5000   427.83111     -271334.85      25504.39      -245830.46      26902.746      402592.25      6.2796667      15.188221    
Loop time of 15.1882 on 1 procs for 5000 steps with 20000 atoms

Performance: 14.222 ns/day, 1.688 hours/ns, 329.202 timesteps/s, 6.584 Matom-step/s
100.0% CPU use with 1 MPI tasks x 1 OpenMP threads

MPI task timing breakdown:
Section |  min time  |  avg time  |  max time  |%varavg| %total
---------------------------------------------------------------
Pair    | 2.4927     | 2.4927     | 2.4927     |   0.0 | 16.41
Neigh   | 0.037027   | 0.037027   | 0.037027   |   0.0 |  0.24
Comm    | 0.049883   | 0.049883   | 0.049883   |   0.0 |  0.33
Output  | 0.0017879  | 0.0017879  | 0.0017879  |   0.0 |  0.01
Modify  | 12.436     | 12.436     | 12.436     |   0.0 | 81.88
Other   |            | 0.1706     |            |       |  1.12

Nlocal:          20000 ave       20000 max       20000 min
Histogram: 1 0 0 0 0 0 0 0 0 0
Nghost:          32503 ave       32503 max       32503 min
Histogram: 1 0 0 0 0 0 0 0 0 0
Neighs:    6.84295e+06 ave 6.84295e+06 max 6.84295e+06 min
Histogram: 1 0 0 0 0 0 0 0 0 0
FullNghs:  1.14062e+07 ave 1.14062e+07 max 1.14062e+07 min
Histogram: 1 0 0 0 0 0 0 0 0 0

Total # of neighbors = 11406240
Ave neighs/atom = 570.312
Neighbor list builds = 23
Dangerous builds = 0
unfix           nvt

# Increase timestep to normal
timestep        2.0

fix             nvt all nvt temp 423.15 423.15 100.0
run             15000
Generated 0 of 1 mixed pair_coeff terms from geometric mixing rule
Per MPI rank memory allocation (min/avg/max) = 38.39 | 38.39 | 38.39 Mbytes
   Step          Temp          PotEng         KinEng         TotEng         Press          Volume        Density          CPU      
      5000   427.83111     -271334.85      25504.39      -245830.46      26902.746      402592.25      6.2796667      0            
      6000   423.92086     -271327.74      25271.288     -246056.45      26715.777      402592.25      6.2796667      4.1631891    
      7000   422.35216     -271362.69      25177.772     -246184.92      26758.956      402592.25      6.2796667      8.3232458    
      8000   422.3808      -271318.94      25179.48      -246139.46      26736.643      402592.25      6.2796667      12.493861    
      9000   423.52896     -271211.61      25247.925     -245963.69      26948.168      402592.25      6.2796667      16.66264     
     10000   421.66671     -271506.79      25136.91      -246369.88      26637.277      402592.25      6.2796667      20.819349    
     11000   419.70602     -271443.45      25020.027     -246423.43      26713.665      402592.25      6.2796667      24.990608    
     12000   426.15192     -271384.84      25404.288     -245980.55      26786.422      402592.25      6.2796667      29.154575    
     13000   420.31175     -271416.25      25056.137     -246360.11      26685.194      402592.25      6.2796667      33.32466     
     14000   426.11516     -271363.61      25402.097     -245961.52      26829.016      402592.25      6.2796667      37.489387    
     15000   421.87877     -271458.39      25149.552     -246308.84      26741.059      402592.25      6.2796667      41.66152     
     16000   421.87431     -271469.78      25149.286     -246320.5       26678.47       402592.25      6.2796667      45.828632    
     17000   418.82245     -271169.28      24967.355     -246201.93      26894.083      402592.25      6.2796667      49.98562     
     18000   425.49314     -271328.13      25365.017     -245963.12      26822.572      402592.25      6.2796667      54.152451    
     19000   425.80431     -271216.33      25383.566     -245832.77      26943.558      402592.25      6.2796667      58.316372    
     20000   420.2085      -271309.18      25049.982     -246259.19      26772.807      402592.25      6.2796667      62.477083    
Loop time of 62.4771 on 1 procs for 15000 steps with 20000 atoms

Performance: 41.487 ns/day, 0.578 hours/ns, 240.088 timesteps/s, 4.802 Matom-step/s
100.0% CPU use with 1 MPI tasks x 1 OpenMP threads

MPI task timing breakdown:
Section |  min time  |  avg time  |  max time  |%varavg| %total
---------------------------------------------------------------
Pair    | 7.5392     | 7.5392     | 7.5392     |   0.0 | 12.07
Neigh   | 0.45786    | 0.45786    | 0.45786    |   0.0 |  0.73
Comm    | 0.37029    | 0.37029    | 0.37029    |   0.0 |  0.59
Output  | 0.0052271  | 0.0052271  | 0.0052271  |   0.0 |  0.01
Modify  | 53.505     | 53.505     | 53.505     |   0.0 | 85.64
Other   |            | 0.5999     |            |       |  0.96

Nlocal:          20000 ave       20000 max       20000 min
Histogram: 1 0 0 0 0 0 0 0 0 0
Nghost:          32448 ave       32448 max       32448 min
Histogram: 1 0 0 0 0 0 0 0 0 0
Neighs:    6.85018e+06 ave 6.85018e+06 max 6.85018e+06 min
Histogram: 1 0 0 0 0 0 0 0 0 0
FullNghs:  1.14063e+07 ave 1.14063e+07 max 1.14063e+07 min
Histogram: 1 0 0 0 0 0 0 0 0 0

Total # of neighbors = 11406268
Ave neighs/atom = 570.3134
Neighbor list builds = 290
Dangerous builds = 0
unfix           nvt

# ========== Production (NVT) ==========
print "========== H100 GPU Production run =========="
========== H100 GPU Production run ==========

fix             nvt all nvt temp 423.15 423.15 100.0

# Reset RDF for production run
uncompute       myrdf
compute         myrdf all rdf 200 1 1 1 2 2 2 cutoff 12.0
unfix           rdfout
fix             rdfout all ave/time 100 10 1000 c_myrdf[*] file rdf.dat mode vector

run             50000
Generated 0 of 1 mixed pair_coeff terms from geometric mixing rule
Neighbor list info ...
  update: every = 1 steps, delay = 0 steps, check = yes
  max neighbors/atom: 2000, page size: 100000
  master list distance cutoff = 14
  ghost atom cutoff = 14
  binsize = 4, bins = 19 19 19
  3 neighbor lists, perpetual/occasional/extra = 2 1 0
  (1) pair lj/cut, perpetual
      attributes: full, newton off, kokkos_device
      pair build: full/bin/kk/device
      stencil: full/bin/3d
      bin: kk/device
  (2) pair table, perpetual, copy from (1)
      attributes: full, newton off, kokkos_device
      pair build: copy/kk/device
      stencil: none
      bin: none
  (3) compute rdf, occasional
      attributes: half, newton off
      pair build: half/bin/atomonly/newtoff
      stencil: full/bin/3d
      bin: standard
Per MPI rank memory allocation (min/avg/max) = 12.06 | 12.06 | 12.06 Mbytes
   Step          Temp          PotEng         KinEng         TotEng         Press          Volume        Density          CPU      
     20000   420.2085      -271309.18      25049.982     -246259.19      26772.807      402592.25      6.2796667      0            
     21000   417.35507     -271339.72      24879.88      -246459.84      26593.837      402592.25      6.2796667      4.1724594    
     22000   422.2274      -271210.47      25170.335     -246040.13      26861.657      402592.25      6.2796667      8.3401607    
     23000   421.71945     -271250.25      25140.054     -246110.2       26887.409      402592.25      6.2796667      12.497474    
     24000   418.8917      -271314.05      24971.483     -246342.57      26760.708      402592.25      6.2796667      16.656886    
     25000   423.18458     -271299.15      25227.395     -246071.76      26797.331      402592.25      6.2796667      20.819762    
     26000   422.9448      -271147.52      25213.101     -245934.42      26930.137      402592.25      6.2796667      24.976105    
     27000   421.10952     -271115.7       25103.694     -246012         26970.194      402592.25      6.2796667      29.134401    
     28000   426.24875     -271265.76      25410.06      -245855.7       26895.265      402592.25      6.2796667      33.301594    
     29000   422.92236     -271471.93      25211.764     -246260.17      26551.991      402592.25      6.2796667      37.470625    
     30000   418.19701     -271286.36      24930.071     -246356.29      26774.25       402592.25      6.2796667      41.631593    
     31000   420.81157     -271463.34      25085.933     -246377.41      26760.706      402592.25      6.2796667      45.790449    
     32000   425.51429     -271178.58      25366.277     -245812.3       26971.005      402592.25      6.2796667      49.956526    
     33000   420.91919     -271197.68      25092.349     -246105.34      26845.757      402592.25      6.2796667      54.117341    
     34000   420.81828     -271320.58      25086.333     -246234.25      26952.309      402592.25      6.2796667      58.286666    
     35000   422.67923     -271511.06      25197.27      -246313.79      26661.04       402592.25      6.2796667      62.458496    
     36000   423.03079     -271241.81      25218.228     -246023.59      26959.201      402592.25      6.2796667      66.615167    
     37000   421.50316     -271284.61      25127.161     -246157.44      26834.832      402592.25      6.2796667      70.778829    
     38000   422.20071     -271479.03      25168.744     -246310.28      26696.118      402592.25      6.2796667      74.931526    
     39000   422.32838     -271209.78      25176.355     -246033.42      26926.101      402592.25      6.2796667      79.101578    
     40000   422.95868     -270975.56      25213.929     -245761.63      27024.704      402592.25      6.2796667      83.263748    
     41000   423.84176     -271269.71      25266.572     -246003.14      26913.226      402592.25      6.2796667      87.432863    
     42000   427.61369     -271125.55      25491.429     -245634.12      26999.838      402592.25      6.2796667      91.594006    
     43000   425.7911      -271355.23      25382.779     -245972.45      26720.789      402592.25      6.2796667      95.76924     
     44000   421.01408     -271090.09      25098.005     -245992.08      27009.631      402592.25      6.2796667      99.921519    
     45000   421.11489     -271263.41      25104.015     -246159.39      26777.76       402592.25      6.2796667      104.09666    
     46000   424.13182     -271245.72      25283.864     -245961.86      26954.229      402592.25      6.2796667      108.25648    
     47000   424.80171     -271314.6       25323.798     -245990.8       26867.156      402592.25      6.2796667      112.41071    
     48000   423.31575     -271522.58      25235.215     -246287.37      26577.805      402592.25      6.2796667      116.56848    
     49000   420.5273      -271088.48      25068.986     -246019.5       27019.448      402592.25      6.2796667      120.72702    
     50000   423.01264     -271353.18      25217.145     -246136.04      26809.602      402592.25      6.2796667      124.89975    
     51000   422.17993     -271200.71      25167.505     -246033.21      26817.655      402592.25      6.2796667      129.06667    
     52000   420.27542     -271476.96      25053.971     -246422.98      26596.105      402592.25      6.2796667      133.22639    
     53000   422.41985     -271159.12      25181.807     -245977.31      27002.543      402592.25      6.2796667      137.39317    
     54000   423.64509     -271321.95      25254.848     -246067.1       26830.536      402592.25      6.2796667      141.54544    
     55000   423.17239     -271401.81      25226.669     -246175.14      26734.669      402592.25      6.2796667      145.71414    
     56000   424.71272     -271425.38      25318.493     -246106.88      26858.678      402592.25      6.2796667      149.87543    
     57000   422.10974     -271255.73      25163.321     -246092.41      26816.084      402592.25      6.2796667      154.04429    
     58000   423.92562     -271381.08      25271.572     -246109.51      26907.868      402592.25      6.2796667      158.20446    
     59000   421.37443     -271099.08      25119.486     -245979.59      27015.987      402592.25      6.2796667      162.37032    
     60000   423.60332     -271283.56      25252.358     -246031.2       26823.042      402592.25      6.2796667      166.53312    
     61000   426.59121     -271401.76      25430.476     -245971.28      26722.596      402592.25      6.2796667      170.70016    
     62000   421.37974     -271373.07      25119.803     -246253.27      26779.21       402592.25      6.2796667      174.86228    
     63000   420.05388     -271265.78      25040.764     -246225.02      26875.262      402592.25      6.2796667      179.0151     
     64000   421.31959     -271334.62      25116.217     -246218.4       26691.803      402592.25      6.2796667      183.17916    
     65000   426.8827      -271508.35      25447.853     -246060.5       26598.024      402592.25      6.2796667      187.34204    
     66000   421.87444     -271435.77      25149.294     -246286.48      26683.2        402592.25      6.2796667      191.50971    
     67000   422.78621     -271474.39      25203.647     -246270.74      26652.858      402592.25      6.2796667      195.66866    
     68000   422.45308     -271301.31      25183.789     -246117.52      26974.429      402592.25      6.2796667      199.83047    
     69000   424.67929     -271244.44      25316.5       -245927.94      26871.961      402592.25      6.2796667      203.99981    
     70000   423.91529     -271443.74      25270.955     -246172.79      26725.681      402592.25      6.2796667      208.16215    
Loop time of 208.162 on 1 procs for 50000 steps with 20000 atoms

Performance: 41.506 ns/day, 0.578 hours/ns, 240.197 timesteps/s, 4.804 Matom-step/s
100.0% CPU use with 1 MPI tasks x 1 OpenMP threads

MPI task timing breakdown:
Section |  min time  |  avg time  |  max time  |%varavg| %total
---------------------------------------------------------------
Pair    | 25.127     | 25.127     | 25.127     |   0.0 | 12.07
Neigh   | 1.5353     | 1.5353     | 1.5353     |   0.0 |  0.74
Comm    | 1.2386     | 1.2386     | 1.2386     |   0.0 |  0.60
Output  | 0.017893   | 0.017893   | 0.017893   |   0.0 |  0.01
Modify  | 178.24     | 178.24     | 178.24     |   0.0 | 85.63
Other   |            | 2.001      |            |       |  0.96

Nlocal:          20000 ave       20000 max       20000 min
Histogram: 1 0 0 0 0 0 0 0 0 0
Nghost:          32512 ave       32512 max       32512 min
Histogram: 1 0 0 0 0 0 0 0 0 0
Neighs:    6.84776e+06 ave 6.84776e+06 max 6.84776e+06 min
Histogram: 1 0 0 0 0 0 0 0 0 0
FullNghs:  1.14071e+07 ave 1.14071e+07 max 1.14071e+07 min
Histogram: 1 0 0 0 0 0 0 0 0 0

Total # of neighbors = 11407110
Ave neighs/atom = 570.3555
Neighbor list builds = 971
Dangerous builds = 0
unfix           nvt

# ========== Finalize ==========
print "========== H100 GPU Simulation completed =========="
========== H100 GPU Simulation completed ==========

# Write restart file for next iteration (use fixed name to avoid shell command issues)
write_restart   outputs/restart.0.data
System init for write_restart ...
Generated 0 of 1 mixed pair_coeff terms from geometric mixing rule

# Final statistics
variable        density_final equal density
variable        temp_final equal temp
variable        press_final equal press

print "========================================="
=========================================
print "FINAL RESULTS:"
FINAL RESULTS:
print "  Density:     ${density_final} g/cm^3"
  Density:     6.27966666056993 g/cm^3
print "  Temperature: ${temp_final} K"
  Temperature: 423.915286390989 K
print "  Pressure:    ${press_final} bar"
  Pressure:    26725.6808523587 bar
print "========================================="
=========================================

print "RDF written to rdf.dat"
RDF written to rdf.dat
print "Restart file written to outputs/restart.0.data"
Restart file written to outputs/restart.0.data
Total wall time: 0:04:46
