LAMMPS (22 Jul 2025 - Update 2)
KOKKOS mode with Kokkos version 4.6.2 is enabled
  will use up to 1 GPU(s) per node
  using 1 OpenMP thread(s) per MPI task
package kokkos
# H100 GPU-Optimized LAMMPS input for EPSR simulation of EGaIn eutectic alloy
# Composition: Ga0.858In0.142
# Temperature: 150Â°C (423.15 K)
# Potential: LJ + Empirical Potential (table)
# GPU: Using KOKKOS for H100 (Hopper architecture)

# ========== KOKKOS Initialization (CRITICAL: Must be first) ==========
# CRITICAL FIX: newton off prevents KOKKOS errors on H100
# Note: pair_style table does not have /kk support, but will run on CPU while LJ runs on GPU
package         kokkos neigh full newton off

# ========== Initialization ==========
units           real
atom_style      atomic
boundary        p p p

# ========== Force field ==========
# Use hybrid/overlay to combine LJ (GPU-accelerated) and table (CPU)
# The -sf kk flag will automatically use lj/cut/kk while table runs on CPU
# NOTE: pair_style must be defined BEFORE read_data if data file contains Pair Coeffs section
pair_style      hybrid/overlay lj/cut 12.0 table linear 200

# ========== Read structure ==========
# Use LJ-equilibrated structure as initial configuration (more stable)
shell           mkdir -p outputs
# nocoeff skips Pair Coeffs section which is incompatible with hybrid/overlay
read_data       outputs/final_structure_lj_H100.data nocoeff
Reading data file ...
  orthogonal box = (0 0 0) to (73.839453 73.839453 73.839453)
  1 by 1 by 1 MPI processor grid
WARNING: Pair style lj/cut/kk in data file differs from currently defined pair style zero (src/read_data.cpp:811)
  reading atoms ...
  20000 atoms
  reading velocities ...
  20000 velocities
  read_data CPU = 0.097 seconds

# LJ potential (GPU-accelerated with -sf kk flag)
pair_coeff      1 1 lj/cut 0.430 2.70    # Ga-Ga
pair_coeff      2 2 lj/cut 0.430 3.11    # In-In
pair_coeff      1 2 lj/cut 0.430 2.905   # Ga-In

# Empirical potential (from table files - runs on CPU)
# Table format: r, U(r), F(r)
pair_coeff      1 1 table data/ep_GaGa.table EP_GAGA 12.0
pair_coeff      2 2 table data/ep_InIn.table EP_ININ 12.0
pair_coeff      1 2 table data/ep_GaIn.table EP_GAIN 12.0

# ========== Settings ==========
mass            1 69.723    # Ga
mass            2 114.818   # In

# Optimized neighbor list for GPU
neighbor        2.0 bin
neigh_modify    delay 0 every 1 check yes binsize 4.0

# ========== Initial velocity ==========
# Re-initialize velocities for this temperature
velocity        all create 423.15 12345 dist gaussian

# ========== Thermodynamic output ==========
thermo          1000
thermo_style    custom step temp pe ke etotal press vol density cpu

# ========== Quick minimization for stability ==========
print "========== Energy Minimization =========="
========== Energy Minimization ==========
minimize        1.0e-4 1.0e-6 1000 10000
Generated 0 of 1 mixed pair_coeff terms from geometric mixing rule
Neighbor list info ...
  update: every = 1 steps, delay = 0 steps, check = yes
  max neighbors/atom: 2000, page size: 100000
  master list distance cutoff = 14
  ghost atom cutoff = 14
  binsize = 4, bins = 19 19 19
  2 neighbor lists, perpetual/occasional/extra = 2 0 0
  (1) pair lj/cut, perpetual
      attributes: full, newton off, kokkos_device
      pair build: full/bin/kk/device
      stencil: full/bin/3d
      bin: kk/device
  (2) pair table, perpetual, copy from (1)
      attributes: full, newton off, kokkos_device
      pair build: copy/kk/device
      stencil: none
      bin: none
WARNING: Fix MINIMIZE/kk not compatible with sending data in Kokkos communication (src/KOKKOS/comm_kokkos.cpp:767)
WARNING: Fix with atom-based arrays not compatible with sending data in Kokkos communication, switching to classic exchange/border communication (src/KOKKOS/comm_kokkos.cpp:780)
WARNING: Fix MINIMIZE/kk not compatible with Kokkos sorting on device (src/KOKKOS/atom_kokkos.cpp:212)
WARNING: Fix with atom-based arrays not compatible with Kokkos sorting on device, switching to classic host sorting (src/KOKKOS/atom_kokkos.cpp:218)
Per MPI rank memory allocation (min/avg/max) = 13.71 | 13.71 | 13.71 Mbytes
   Step          Temp          PotEng         KinEng         TotEng         Press          Volume        Density          CPU      
         0   423.15        -41656.468      25225.334     -16431.134      26889.529      402592.25      6.2796667      0            
       126   423.15        -65387.517      25225.334     -40162.183      6465.043       402592.25      6.2796667      0.19192504   
Loop time of 0.191934 on 1 procs for 126 steps with 20000 atoms

98.7% CPU use with 1 MPI tasks x 1 OpenMP threads

Minimization stats:
  Stopping criterion = energy tolerance
  Energy initial, next-to-last, final = 
     -41656.4679952413  -65381.3442319618  -65387.5168409727
  Force two-norm initial, final = 1548.8099 16.921136
  Force max component initial, final = 43.183702 3.800244
  Final line search alpha, max atom move = 0.024791182 0.094212541
  Iterations, force evaluations = 126 128

MPI task timing breakdown:
Section |  min time  |  avg time  |  max time  |%varavg| %total
---------------------------------------------------------------
Pair    | 0.15582    | 0.15582    | 0.15582    |   0.0 | 81.19
Neigh   | 0.0073656  | 0.0073656  | 0.0073656  |   0.0 |  3.84
Comm    | 0.0080296  | 0.0080296  | 0.0080296  |   0.0 |  4.18
Output  | 0          | 0          | 0          |   0.0 |  0.00
Modify  | 0          | 0          | 0          |   0.0 |  0.00
Other   |            | 0.02072    |            |       | 10.79

Nlocal:          20000 ave       20000 max       20000 min
Histogram: 1 0 0 0 0 0 0 0 0 0
Nghost:          32421 ave       32421 max       32421 min
Histogram: 1 0 0 0 0 0 0 0 0 0
Neighs:              0 ave           0 max           0 min
Histogram: 1 0 0 0 0 0 0 0 0 0
FullNghs:   1.1392e+07 ave  1.1392e+07 max  1.1392e+07 min
Histogram: 1 0 0 0 0 0 0 0 0 0

Total # of neighbors = 11391980
Ave neighs/atom = 569.599
Neighbor list builds = 6
Dangerous builds = 0
reset_timestep  0

# ========== RDF computation ==========
# Compute total and partial pair distribution functions
compute         myrdf all rdf 200 1 1 1 2 2 2 cutoff 12.0

# Time-average RDF output
fix             rdfout all ave/time 100 10 1000 c_myrdf[*] file rdf.dat mode vector

# ========== Equilibration (NVT) ==========
print "========== H100 GPU Equilibration =========="
========== H100 GPU Equilibration ==========

# Start with small timestep for stability
timestep        0.5

fix             nvt all nvt temp 423.15 423.15 100.0
run             5000
Generated 0 of 1 mixed pair_coeff terms from geometric mixing rule
Neighbor list info ...
  update: every = 1 steps, delay = 0 steps, check = yes
  max neighbors/atom: 2000, page size: 100000
  master list distance cutoff = 14
  ghost atom cutoff = 14
  binsize = 4, bins = 19 19 19
  3 neighbor lists, perpetual/occasional/extra = 2 1 0
  (1) pair lj/cut, perpetual
      attributes: full, newton off, kokkos_device
      pair build: full/bin/kk/device
      stencil: full/bin/3d
      bin: kk/device
  (2) pair table, perpetual, copy from (1)
      attributes: full, newton off, kokkos_device
      pair build: copy/kk/device
      stencil: none
      bin: none
  (3) compute rdf, occasional
      attributes: half, newton off
      pair build: half/bin/atomonly/newtoff
      stencil: full/bin/3d
      bin: standard
Per MPI rank memory allocation (min/avg/max) = 12.06 | 12.06 | 12.06 Mbytes
   Step          Temp          PotEng         KinEng         TotEng         Press          Volume        Density          CPU      
         0   423.15        -65387.517      25225.334     -40162.183      6465.043       402592.25      6.2796667      0            
      1000   323.47453     -48268.832      19283.358     -28985.474      20601.63       402592.25      6.2796667      2.9058281    
      2000   431.51018     -42228.557      25723.711     -16504.846      26446.974      402592.25      6.2796667      5.9974091    
      3000   424.1085      -42376.416      25282.474     -17093.943      26291.428      402592.25      6.2796667      9.1028654    
      4000   422.99447     -42224.289      25216.062     -17008.226      26436.76       402592.25      6.2796667      12.202709    
      5000   423.67023     -41928.754      25256.347     -16672.408      26679.513      402592.25      6.2796667      15.306749    
Loop time of 15.3068 on 1 procs for 5000 steps with 20000 atoms

Performance: 14.111 ns/day, 1.701 hours/ns, 326.653 timesteps/s, 6.533 Matom-step/s
99.9% CPU use with 1 MPI tasks x 1 OpenMP threads

MPI task timing breakdown:
Section |  min time  |  avg time  |  max time  |%varavg| %total
---------------------------------------------------------------
Pair    | 2.501      | 2.501      | 2.501      |   0.0 | 16.34
Neigh   | 0.037907   | 0.037907   | 0.037907   |   0.0 |  0.25
Comm    | 0.04924    | 0.04924    | 0.04924    |   0.0 |  0.32
Output  | 0.001732   | 0.001732   | 0.001732   |   0.0 |  0.01
Modify  | 12.546     | 12.546     | 12.546     |   0.0 | 81.96
Other   |            | 0.1707     |            |       |  1.12

Nlocal:          20000 ave       20000 max       20000 min
Histogram: 1 0 0 0 0 0 0 0 0 0
Nghost:          32443 ave       32443 max       32443 min
Histogram: 1 0 0 0 0 0 0 0 0 0
Neighs:    6.83987e+06 ave 6.83987e+06 max 6.83987e+06 min
Histogram: 1 0 0 0 0 0 0 0 0 0
FullNghs:  1.13983e+07 ave 1.13983e+07 max 1.13983e+07 min
Histogram: 1 0 0 0 0 0 0 0 0 0

Total # of neighbors = 11398272
Ave neighs/atom = 569.9136
Neighbor list builds = 23
Dangerous builds = 0
unfix           nvt

# Increase timestep to normal
timestep        2.0

fix             nvt all nvt temp 423.15 423.15 100.0
run             15000
Generated 0 of 1 mixed pair_coeff terms from geometric mixing rule
Per MPI rank memory allocation (min/avg/max) = 38.39 | 38.39 | 38.39 Mbytes
   Step          Temp          PotEng         KinEng         TotEng         Press          Volume        Density          CPU      
      5000   423.67023     -41928.754      25256.347     -16672.408      26679.513      402592.25      6.2796667      0            
      6000   425.57898     -41999.703      25370.133     -16629.57       26622.181      402592.25      6.2796667      4.1626273    
      7000   425.09774     -41897.987      25341.445     -16556.542      26721.763      402592.25      6.2796667      8.335843     
      8000   424.6345      -41748.686      25313.83      -16434.856      26824.662      402592.25      6.2796667      12.505168    
      9000   423.08832     -41806.435      25221.657     -16584.778      26779.462      402592.25      6.2796667      16.679422    
     10000   424.35963     -41887.872      25297.444     -16590.428      26706.963      402592.25      6.2796667      20.857811    
     11000   422.26295     -41756.706      25172.454     -16584.251      26807.871      402592.25      6.2796667      25.024813    
     12000   423.95662     -41759.033      25273.419     -16485.614      26806.917      402592.25      6.2796667      29.187493    
     13000   420.47492     -41894.116      25065.864     -16828.252      26686.846      402592.25      6.2796667      33.368157    
     14000   420.19731     -41796.784      25049.315     -16747.469      26765.786      402592.25      6.2796667      37.544848    
     15000   420.50137     -41877.059      25067.44      -16809.619      26684.117      402592.25      6.2796667      41.716426    
     16000   422.70013     -41699.271      25198.516     -16500.755      26835.518      402592.25      6.2796667      45.89323     
     17000   423.13821     -41751.812      25224.631     -16527.181      26815.204      402592.25      6.2796667      50.07372     
     18000   420.04444     -41837.46       25040.202     -16797.258      26739.228      402592.25      6.2796667      54.239905    
     19000   420.03952     -41754.128      25039.908     -16714.22       26791.807      402592.25      6.2796667      58.404333    
     20000   419.29811     -41731.038      24995.71      -16735.327      26810.114      402592.25      6.2796667      62.57901     
Loop time of 62.579 on 1 procs for 15000 steps with 20000 atoms

Performance: 41.420 ns/day, 0.579 hours/ns, 239.697 timesteps/s, 4.794 Matom-step/s
100.0% CPU use with 1 MPI tasks x 1 OpenMP threads

MPI task timing breakdown:
Section |  min time  |  avg time  |  max time  |%varavg| %total
---------------------------------------------------------------
Pair    | 7.5156     | 7.5156     | 7.5156     |   0.0 | 12.01
Neigh   | 0.46233    | 0.46233    | 0.46233    |   0.0 |  0.74
Comm    | 0.37318    | 0.37318    | 0.37318    |   0.0 |  0.60
Output  | 0.0053316  | 0.0053316  | 0.0053316  |   0.0 |  0.01
Modify  | 53.621     | 53.621     | 53.621     |   0.0 | 85.69
Other   |            | 0.6014     |            |       |  0.96

Nlocal:          20000 ave       20000 max       20000 min
Histogram: 1 0 0 0 0 0 0 0 0 0
Nghost:          32401 ave       32401 max       32401 min
Histogram: 1 0 0 0 0 0 0 0 0 0
Neighs:    6.84038e+06 ave 6.84038e+06 max 6.84038e+06 min
Histogram: 1 0 0 0 0 0 0 0 0 0
FullNghs:   1.1401e+07 ave  1.1401e+07 max  1.1401e+07 min
Histogram: 1 0 0 0 0 0 0 0 0 0

Total # of neighbors = 11400966
Ave neighs/atom = 570.0483
Neighbor list builds = 292
Dangerous builds = 0
unfix           nvt

# ========== Production (NVT) ==========
print "========== H100 GPU Production run =========="
========== H100 GPU Production run ==========

fix             nvt all nvt temp 423.15 423.15 100.0

# Reset RDF for production run
uncompute       myrdf
compute         myrdf all rdf 200 1 1 1 2 2 2 cutoff 12.0
unfix           rdfout
fix             rdfout all ave/time 100 10 1000 c_myrdf[*] file rdf.dat mode vector

run             50000
Generated 0 of 1 mixed pair_coeff terms from geometric mixing rule
Neighbor list info ...
  update: every = 1 steps, delay = 0 steps, check = yes
  max neighbors/atom: 2000, page size: 100000
  master list distance cutoff = 14
  ghost atom cutoff = 14
  binsize = 4, bins = 19 19 19
  3 neighbor lists, perpetual/occasional/extra = 2 1 0
  (1) pair lj/cut, perpetual
      attributes: full, newton off, kokkos_device
      pair build: full/bin/kk/device
      stencil: full/bin/3d
      bin: kk/device
  (2) pair table, perpetual, copy from (1)
      attributes: full, newton off, kokkos_device
      pair build: copy/kk/device
      stencil: none
      bin: none
  (3) compute rdf, occasional
      attributes: half, newton off
      pair build: half/bin/atomonly/newtoff
      stencil: full/bin/3d
      bin: standard
Per MPI rank memory allocation (min/avg/max) = 12.06 | 12.06 | 12.06 Mbytes
   Step          Temp          PotEng         KinEng         TotEng         Press          Volume        Density          CPU      
     20000   419.29811     -41731.038      24995.71      -16735.327      26810.114      402592.25      6.2796667      0            
     21000   422.67047     -41983.084      25196.748     -16786.336      26634.387      402592.25      6.2796667      4.1704819    
     22000   419.55342     -41549.12       25010.93      -16538.19       26949.986      402592.25      6.2796667      8.3291737    
     23000   426.09544     -41892.645      25400.921     -16491.723      26742.401      402592.25      6.2796667      12.482154    
     24000   424.92156     -41808.989      25330.943     -16478.047      26781.174      402592.25      6.2796667      16.644672    
     25000   420.36545     -41659.941      25059.338     -16600.603      26872.192      402592.25      6.2796667      20.795793    
     26000   423.11274     -41958.219      25223.113     -16735.106      26670.008      402592.25      6.2796667      24.948665    
     27000   422.22438     -41607.054      25170.155     -16436.899      26938.8        402592.25      6.2796667      29.100313    
     28000   425.05531     -41805.657      25338.916     -16466.741      26794.249      402592.25      6.2796667      33.25058     
     29000   422.97807     -41703.903      25215.085     -16488.818      26878.25       402592.25      6.2796667      37.403776    
     30000   418.88617     -41695.203      24971.153     -16724.05       26824.557      402592.25      6.2796667      41.557251    
     31000   423.42721     -41639.348      25241.86      -16397.488      26927.985      402592.25      6.2796667      45.711983    
     32000   418.37163     -41640.124      24940.48      -16699.644      26887.615      402592.25      6.2796667      49.869764    
     33000   424.47607     -41527.362      25304.385     -16222.977      27037.792      402592.25      6.2796667      54.02131     
     34000   417.23034     -42009.52       24872.444     -17137.076      26563.053      402592.25      6.2796667      58.179039    
     35000   422.79972     -41625.263      25204.453     -16420.81       26936.198      402592.25      6.2796667      62.331105    
     36000   419.43307     -41690.068      25003.756     -16686.312      26844.43       402592.25      6.2796667      66.487317    
     37000   424.75186     -41960.583      25320.826     -16639.757      26644.626      402592.25      6.2796667      70.636081    
     38000   417.86609     -42020.051      24910.344     -17109.707      26557.946      402592.25      6.2796667      74.789792    
     39000   426.68867     -41821.598      25436.285     -16385.313      26806.157      402592.25      6.2796667      78.936316    
     40000   423.28559     -41812.148      25233.417     -16578.731      26777.979      402592.25      6.2796667      83.086782    
     41000   424.25057     -41605.808      25290.942     -16314.866      26951.083      402592.25      6.2796667      87.249712    
     42000   423.16607     -41697.454      25226.292     -16471.162      26843.511      402592.25      6.2796667      91.405694    
     43000   424.72264     -41683.106      25319.084     -16364.022      26906.736      402592.25      6.2796667      95.551631    
     44000   422.29226     -41733.522      25174.202     -16559.32       26845.654      402592.25      6.2796667      99.719211    
     45000   423.98813     -41685.585      25275.298     -16410.287      26884.67       402592.25      6.2796667      103.87748    
     46000   423.73269     -41538.973      25260.07      -16278.903      27004.722      402592.25      6.2796667      108.04033    
     47000   424.37989     -41792.143      25298.652     -16493.491      26800.501      402592.25      6.2796667      112.19105    
     48000   421.53377     -41788.756      25128.985     -16659.771      26765.813      402592.25      6.2796667      116.35062    
     49000   423.15136     -41707.376      25225.415     -16481.961      26848.608      402592.25      6.2796667      120.49855    
     50000   422.20839     -41987.125      25169.202     -16817.924      26612.448      402592.25      6.2796667      124.65245    
     51000   424.95182     -41928.156      25332.746     -16595.409      26671.666      402592.25      6.2796667      128.80943    
     52000   421.19543     -41706.354      25108.816     -16597.538      26866.527      402592.25      6.2796667      132.96928    
     53000   423.52312     -41692.643      25247.577     -16445.066      26862.179      402592.25      6.2796667      137.11883    
     54000   423.35451     -41749.591      25237.526     -16512.065      26814.028      402592.25      6.2796667      141.27017    
     55000   421.92105     -41661.149      25152.073     -16509.076      26894.565      402592.25      6.2796667      145.42429    
     56000   422.61516     -41571.099      25193.45      -16377.648      26963.894      402592.25      6.2796667      149.58688    
     57000   423.92044     -41831.693      25271.263     -16560.43       26751.751      402592.25      6.2796667      153.73839    
     58000   427.25216     -41813.091      25469.877     -16343.214      26788.782      402592.25      6.2796667      157.89995    
     59000   422.32177     -41800.018      25175.961     -16624.057      26801.182      402592.25      6.2796667      162.05587    
     60000   419.59036     -41907.785      25013.133     -16894.653      26662.436      402592.25      6.2796667      166.22241    
     61000   421.3344      -41588.947      25117.1       -16471.846      26954.463      402592.25      6.2796667      170.38031    
     62000   423.25188     -41633.779      25231.407     -16402.372      26946.267      402592.25      6.2796667      174.52988    
     63000   424.04383     -41743.43       25278.618     -16464.812      26832.257      402592.25      6.2796667      178.70351    
     64000   430.53947     -41871.325      25665.844     -16205.481      26770.667      402592.25      6.2796667      182.856      
     65000   424.64817     -41604.795      25314.645     -16290.151      26949.595      402592.25      6.2796667      187.01491    
     66000   424.23719     -41863.608      25290.145     -16573.462      26722.883      402592.25      6.2796667      191.16091    
     67000   420.52777     -41848.385      25069.015     -16779.371      26722.244      402592.25      6.2796667      195.31282    
     68000   427.08511     -41808.336      25459.919     -16348.417      26811.801      402592.25      6.2796667      199.46935    
     69000   423.97256     -41876.586      25274.37      -16602.216      26736.609      402592.25      6.2796667      203.6253     
     70000   421.63865     -41730.039      25135.238     -16594.801      26833.206      402592.25      6.2796667      207.78475    
Loop time of 207.785 on 1 procs for 50000 steps with 20000 atoms

Performance: 41.581 ns/day, 0.577 hours/ns, 240.633 timesteps/s, 4.813 Matom-step/s
100.0% CPU use with 1 MPI tasks x 1 OpenMP threads

MPI task timing breakdown:
Section |  min time  |  avg time  |  max time  |%varavg| %total
---------------------------------------------------------------
Pair    | 25.092     | 25.092     | 25.092     |   0.0 | 12.08
Neigh   | 1.5497     | 1.5497     | 1.5497     |   0.0 |  0.75
Comm    | 1.248      | 1.248      | 1.248      |   0.0 |  0.60
Output  | 0.017604   | 0.017604   | 0.017604   |   0.0 |  0.01
Modify  | 177.87     | 177.87     | 177.87     |   0.0 | 85.60
Other   |            | 2.005      |            |       |  0.97

Nlocal:          20000 ave       20000 max       20000 min
Histogram: 1 0 0 0 0 0 0 0 0 0
Nghost:          32547 ave       32547 max       32547 min
Histogram: 1 0 0 0 0 0 0 0 0 0
Neighs:    6.84448e+06 ave 6.84448e+06 max 6.84448e+06 min
Histogram: 1 0 0 0 0 0 0 0 0 0
FullNghs:  1.13979e+07 ave 1.13979e+07 max 1.13979e+07 min
Histogram: 1 0 0 0 0 0 0 0 0 0

Total # of neighbors = 11397880
Ave neighs/atom = 569.894
Neighbor list builds = 980
Dangerous builds = 0
unfix           nvt

# ========== Finalize ==========
print "========== H100 GPU Simulation completed =========="
========== H100 GPU Simulation completed ==========

# Write restart file for next iteration (use fixed name to avoid shell command issues)
write_restart   outputs/restart.0.data
System init for write_restart ...
Generated 0 of 1 mixed pair_coeff terms from geometric mixing rule

# Final statistics
variable        density_final equal density
variable        temp_final equal temp
variable        press_final equal press

print "========================================="
=========================================
print "FINAL RESULTS:"
FINAL RESULTS:
print "  Density:     ${density_final} g/cm^3"
  Density:     6.27966666056993 g/cm^3
print "  Temperature: ${temp_final} K"
  Temperature: 421.638650182107 K
print "  Pressure:    ${press_final} bar"
  Pressure:    26833.2061189281 bar
print "========================================="
=========================================

print "RDF written to rdf.dat"
RDF written to rdf.dat
print "Restart file written to outputs/restart.0.data"
Restart file written to outputs/restart.0.data
Total wall time: 0:04:46
